[Molden Format]
made by pyscf v[2.12.1]
[Atoms] (AU)
C   1   6     0.00000000000000     2.63805766989283     0.00000000000000
C   2   6     2.28467888459916     1.31902883494641     0.00000000000000
C   3   6     2.28467888459916    -1.31902883494641     0.00000000000000
C   4   6     0.00000000000000    -2.63805766989283     0.00000000000000
C   5   6    -2.28467888459916    -1.31902883494641     0.00000000000000
C   6   6    -2.28467888459916     1.31902883494641     0.00000000000000
H   7   1     0.00000000000000     4.68463106279679     0.00000000000000
H   8   1     4.05724198944119     2.34326039446068     0.00000000000000
H   9   1     4.05724198944119    -2.34326039446068     0.00000000000000
H   10   1     0.00000000000000    -4.68463106279679     0.00000000000000
H   11   1    -4.05724198944119    -2.34326039446068     0.00000000000000
H   12   1    -4.05724198944119     2.34326039446068     0.00000000000000
[GTO]
1 0
 s    3 1.00
             71.616837    0.15432897000916
             13.045096    0.53532814003178
             3.5305122     0.4446345400264
 s    3 1.00
             2.9412494  -0.099967230075964
             0.6834831    0.39951283030359
             0.2222899    0.70011547053201
 p    3 1.00
             2.9412494    0.15591627210511
             0.6834831    0.60768372820466
             0.2222899    0.39195739529202

2 0
 s    3 1.00
             71.616837    0.15432897000916
             13.045096    0.53532814003178
             3.5305122     0.4446345400264
 s    3 1.00
             2.9412494  -0.099967230075964
             0.6834831    0.39951283030359
             0.2222899    0.70011547053201
 p    3 1.00
             2.9412494    0.15591627210511
             0.6834831    0.60768372820466
             0.2222899    0.39195739529202

3 0
 s    3 1.00
             71.616837    0.15432897000916
             13.045096    0.53532814003178
             3.5305122     0.4446345400264
 s    3 1.00
             2.9412494  -0.099967230075964
             0.6834831    0.39951283030359
             0.2222899    0.70011547053201
 p    3 1.00
             2.9412494    0.15591627210511
             0.6834831    0.60768372820466
             0.2222899    0.39195739529202

4 0
 s    3 1.00
             71.616837    0.15432897000916
             13.045096    0.53532814003178
             3.5305122     0.4446345400264
 s    3 1.00
             2.9412494  -0.099967230075964
             0.6834831    0.39951283030359
             0.2222899    0.70011547053201
 p    3 1.00
             2.9412494    0.15591627210511
             0.6834831    0.60768372820466
             0.2222899    0.39195739529202

5 0
 s    3 1.00
             71.616837    0.15432897000916
             13.045096    0.53532814003178
             3.5305122     0.4446345400264
 s    3 1.00
             2.9412494  -0.099967230075964
             0.6834831    0.39951283030359
             0.2222899    0.70011547053201
 p    3 1.00
             2.9412494    0.15591627210511
             0.6834831    0.60768372820466
             0.2222899    0.39195739529202

6 0
 s    3 1.00
             71.616837    0.15432897000916
             13.045096    0.53532814003178
             3.5305122     0.4446345400264
 s    3 1.00
             2.9412494  -0.099967230075964
             0.6834831    0.39951283030359
             0.2222899    0.70011547053201
 p    3 1.00
             2.9412494    0.15591627210511
             0.6834831    0.60768372820466
             0.2222899    0.39195739529202

7 0
 s    3 1.00
            3.42525091    0.15432897070298
            0.62391373    0.53532814243847
             0.1688554    0.44463454202535

8 0
 s    3 1.00
            3.42525091    0.15432897070298
            0.62391373    0.53532814243847
             0.1688554    0.44463454202535

9 0
 s    3 1.00
            3.42525091    0.15432897070298
            0.62391373    0.53532814243847
             0.1688554    0.44463454202535

10 0
 s    3 1.00
            3.42525091    0.15432897070298
            0.62391373    0.53532814243847
             0.1688554    0.44463454202535

11 0
 s    3 1.00
            3.42525091    0.15432897070298
            0.62391373    0.53532814243847
             0.1688554    0.44463454202535

12 0
 s    3 1.00
            3.42525091    0.15432897070298
            0.62391373    0.53532814243847
             0.1688554    0.44463454202535

[5d]
[7f]
[9g]

[MO]
 Sym= A
 Ene=     -11.0290864
 Spin= Alpha
 Occup=    2.00000
   1    -5.4536747937798e-11
   2    -1.9909764339331e-12
   3    0.0037732983220609
   4    1.1448372050856e-13
   5    -2.6785965503183e-16
   6     -0.49626067492013
   7    -0.014563119495542
   8    0.00053341713418885
   9    -0.0018711355056952
  10    -1.5188210918334e-17
  11     -0.49626067481105
  12    -0.014563119492303
  13    0.00053341713488105
  14    0.0018711355067122
  15    1.4426115718592e-16
  16    1.5941387177355e-10
  17    4.112963690881e-12
  18    0.0037732983221373
  19    -3.7430499385655e-13
  20    -5.4772419648598e-17
  21       0.4962606750533
  22     0.014563119498895
  23    0.00053341713386546
  24    -0.0018711355059228
  25    5.2954616775789e-17
  26      0.49626067492489
  27     0.014563119494814
  28    0.00053341713453943
  29    0.0018711355070379
  30    6.2874024422471e-17
  31    3.452547979991e-13
  32    0.0033010027782469
  33    0.0033010027775198
  34    -1.0743201590028e-12
  35    -0.003301002779172
  36    -0.0033010027783109
 Sym= A
 Ene=    -11.02907219
 Spin= Alpha
 Occup=    2.00000
   1      0.56445530574761
   2     0.016377192379172
   3    7.6545543382023e-13
   4    0.00059972461776785
   5    -4.7252004541026e-17
   6      0.29490579423907
   7    0.0088432268399991
   8    0.0018258498765174
   9    -0.0027178713063061
  10    -4.7352630151556e-17
  11     -0.29490579426517
  12    -0.0088432268416308
  13    -0.0018258498759011
  14    -0.0027178713059741
  15    -6.7015687876456e-19
  16     -0.56445530561584
  17    -0.016377192376658
  18    6.9617835247231e-13
  19    0.00059972461710122
  20    -9.0242060827538e-19
  21     -0.29490579408172
  22    -0.0088432268363722
  23    0.0018258498760996
  24    -0.0027178713067437
  25    -1.9622629985116e-18
  26       0.2949057944401
  27    0.0088432268460233
  28    -0.0018258498763027
  29    -0.0027178713056258
  30    -1.3483508749327e-18
  31    -0.0037518718393606
  32    -0.0019662400306166
  33    0.0019662400307408
  34    0.0037518718384446
  35    0.0019662400295232
  36    -0.0019662400319565
 Sym= A
 Ene=    -11.02905294
 Spin= Alpha
 Occup=    2.00000
   1      0.38765439205223
   2    0.0084336977027967
   3    -5.8746460222594e-13
   4    0.0016047647027006
   5    -7.8553105560412e-17
   6      0.41400946698776
   7    0.0095801690381668
   8    0.0012599664193371
   9    0.00084780015309781
  10    2.4583942227662e-17
  11      0.41400946708492
  12    0.0095801690408225
  13     0.001259966420074
  14    -0.00084780015212639
  15    6.0518843369459e-18
  16      0.38765439227377
  17    0.0084336977093477
  18    -5.0620011840396e-13
  19    -0.0016047647028969
  20    1.6493028034787e-18
  21       0.4140094669514
  22    0.0095801690370506
  23    -0.0012599664202192
  24    -0.00084780015153123
  25    1.4602702581299e-18
  26      0.41400946683361
  27    0.0095801690334965
  28    -0.001259966419501
  29    0.00084780015260797
  30    -5.2945983230277e-18
  31    -0.0026949453014161
  32    -0.0028769625676357
  33    -0.0028769625682779
  34    -0.0026949453028914
  35    -0.0028769625673929
  36    -0.0028769625666072
 Sym= A
 Ene=    -11.02873505
 Spin= Alpha
 Occup=    2.00000
   1    2.7919065727343e-12
   2    4.4234197935891e-14
   3    0.0039039463725309
   4    1.9571429622899e-14
   5    -1.1813515286726e-17
   6     -0.49589420999595
   7    -0.021589685339801
   8    0.00045771814244636
   9    0.0025173106141803
  10    -8.1311527585205e-17
  11      0.49589420998425
  12     0.021589685339243
  13    -0.00045771814231043
  14    0.0025173106142938
  15    3.9094241972927e-17
  16    2.7997279850268e-11
  17    1.1108091508032e-12
  18    -0.0039039463724573
  19    5.864811921671e-14
  20    2.7167355404051e-17
  21      -0.4958942099956
  22    -0.021589685340117
  23    -0.0004577181425471
  24    -0.0025173106142114
  25    8.127416719323e-17
  26      0.49589421000324
  27     0.021589685340127
  28    0.00045771814243176
  29    -0.0025173106142513
  30    1.1879177250972e-16
  31    -1.9440988483658e-14
  32    0.0034502985381323
  33    -0.0034502985380542
  34    -1.9494487835376e-13
  35    0.0034502985381383
  36    -0.003450298538188
 Sym= A
 Ene=    -11.02872039
 Spin= Alpha
 Occup=    2.00000
   1      0.58477925458898
   2     0.025202412859249
   3    -5.1681485998573e-14
   4    -0.0018609368198299
   5    1.5438776480725e-16
   6       -0.273730021293
   7    -0.012176617778119
   8    0.0025579459023719
   9    -0.0024255576863465
  10    -1.4277384493557e-16
  11     -0.27373002132372
  12     -0.01217661777937
  13    0.0025579459023546
  14    0.0024255576861627
  15    -3.0201304162029e-18
  16      0.58477925457626
  17     0.025202412858951
  18    1.0000897759958e-13
  19    0.0018609368198655
  20    5.5220520338537e-19
  21      -0.2737300212981
  22    -0.012176617778344
  23     -0.00255794590233
  24    0.0024255576862365
  25    4.1013806915205e-19
  26     -0.27373002130592
  27    -0.012176617778772
  28    -0.0025579459023828
  29    -0.002425557686225
  30    4.0408971054927e-18
  31    -0.0040707836658505
  32    0.0019047232719696
  33    0.0019047232721818
  34    -0.0040707836657674
  35    0.0019047232720055
  36    0.0019047232720614
 Sym= A
 Ene=    -11.02858524
 Spin= Alpha
 Occup=    2.00000
   1      0.41661678099599
   2     0.021269334440725
   3    4.9949731810912e-14
   4    -0.002428737988504
   5    1.1637618940889e-16
   6     -0.39866725949798
   7    -0.020740856067268
   8     0.002153734197536
   9    0.0011639265094008
  10    2.2793373702729e-16
  11      0.39866725950701
  12     0.020740856067466
  13    -0.0021537341975053
  14    0.0011639265093875
  15    3.343510575017e-18
  16     -0.41661678098624
  17    -0.021269334440415
  18    -9.2507947482611e-14
  19    -0.0024287379885109
  20    -1.115332682916e-18
  21      0.39866725948331
  22     0.020740856066514
  23    0.0021537341974826
  24    0.0011639265093169
  25    -3.2900764352049e-20
  26     -0.39866725948549
  27    -0.020740856066645
  28    -0.0021537341975252
  29    0.0011639265092881
  30    1.8190292729702e-18
  31    -0.0029927452769021
  32    0.0028717307667381
  33    -0.0028717307667989
  34    0.0029927452768344
  35    -0.0028717307666358
  36    0.0028717307666495
 Sym= A
 Ene=    -1.089158574
 Spin= Alpha
 Occup=    2.00000
   1     -0.10468320228063
   2      0.26503617712419
   3    -2.9802584788817e-16
   4    -0.061520120865847
   5    -4.538608425182e-16
   6     -0.10467217860745
   7      0.26501880529528
   8    -0.053303064370384
   9    -0.030764697903151
  10    1.3425955999244e-16
  11     -0.10467217860745
  12      0.26501880529528
  13    -0.053303064370383
  14     0.030764697903154
  15    6.7349980967459e-17
  16     -0.10468320228063
  17       0.2650361771242
  18    -6.5830653671831e-17
  19     0.061520120865847
  20    1.9117280823308e-18
  21     -0.10467217860745
  22      0.26501880529528
  23     0.053303064370386
  24     0.030764697903151
  25    -1.4171674487695e-17
  26     -0.10467217860745
  27      0.26501880529529
  28     0.053303064370385
  29    -0.030764697903155
  30    -9.3736253839816e-17
  31     0.047344501065478
  32     0.047309647609458
  33     0.047309647609458
  34      0.04734450106548
  35      0.04730964760946
  36     0.047309647609459
 Sym= A
 Ene=   -0.9544203999
 Spin= Alpha
 Occup=    2.00000
   1      0.14640582631306
   2     -0.39517180725319
   3    2.914647839067e-13
   4     0.026985259237747
   5    -2.9106157596913e-16
   6      0.07319435465459
   7     -0.19757190790804
   8     0.068029576219839
   9    -0.090800195608459
  10    5.7303569014044e-16
  11    -0.073194354655158
  12      0.19757190790958
  13    -0.068029576219782
  14    -0.090800195608154
  15    1.648840091155e-16
  16     -0.14640582631306
  17      0.39517180725319
  18    2.9237244782795e-13
  19     0.026985259237745
  20    -6.4706260040808e-18
  21    -0.073194354654589
  22      0.19757190790804
  23     0.068029576219841
  24     -0.09080019560846
  25    1.6215202381732e-17
  26     0.073194354655161
  27     -0.19757190790959
  28    -0.068029576219784
  29    -0.090800195608156
  30    -7.0032545528664e-17
  31     -0.10931523244643
  32    -0.054628801623856
  33     0.054628801624279
  34      0.10931523244643
  35     0.054628801623856
  36    -0.054628801624281
 Sym= A
 Ene=   -0.9543826571
 Spin= Alpha
 Occup=    2.00000
   1    -3.3069380715387e-13
   2    8.9232845496052e-13
   3      0.13009967345211
   4    -6.0664979012909e-14
   5    1.8918335706334e-15
   6      -0.1267920892477
   7      0.34225182748205
   8     0.012224223508373
   9     -0.06803156765813
  10    1.2014104365391e-15
  11     -0.12679208924737
  12      0.34225182748115
  13     0.012224223508677
  14     0.068031567658548
  15    -1.9878581844241e-16
  16    3.2726890616909e-13
  17    -8.8280727119255e-13
  18       0.1300996734521
  19    -6.034105461678e-14
  20    -9.2611535927626e-16
  21       0.1267920892477
  22     -0.34225182748203
  23     0.012224223508375
  24    -0.068031567658135
  25    1.8214609400467e-17
  26      0.12679208924737
  27     -0.34225182748116
  28     0.012224223508682
  29     0.068031567658544
  30    1.1813886753865e-15
  31    2.4759912521692e-13
  32     0.094613157955447
  33     0.094613157955193
  34    -2.4529925360906e-13
  35     -0.09461315795544
  36    -0.094613157955199
 Sym= A
 Ene=   -0.7669669848
 Spin= Alpha
 Occup=    2.00000
   1    4.5925743968201e-11
   2    -1.3529393617069e-10
   3      0.23011870296648
   4    -3.4118856766203e-11
   5    -8.331565930691e-16
   6    -0.098999856964555
   7      0.29165279278807
   8    0.0060224724264578
   9      0.13635626334522
  10    1.6054300411291e-15
  11      0.09899985691863
  12     -0.29165279265278
  13    -0.0060224723170097
  14      0.13635626346689
  15    7.9453896092477e-16
  16    4.5926624586089e-11
  17    -1.3529519619181e-10
  18     -0.23011870296649
  19    3.4120455464394e-11
  20    -7.9941804647864e-16
  21    -0.098999856964562
  22      0.29165279278809
  23    -0.0060224724264607
  24     -0.13635626334521
  25    -1.7978034176325e-15
  26     0.098999856918623
  27     -0.29165279265276
  28    0.0060224723170119
  29      -0.1363562634669
  30    -1.4774647484174e-15
  31    -7.1869600932963e-11
  32      0.15481054266539
  33     -0.15481054259366
  34    -7.1872703987522e-11
  35       0.1548105426654
  36     -0.15481054259366
 Sym= A
 Ene=   -0.7669645392
 Spin= Alpha
 Occup=    2.00000
   1     -0.11432132797668
   2      0.33678190475781
   3    9.2444776531053e-11
   4     0.084933819929512
   5    3.8813668051201e-16
   6     0.057166763366247
   7     -0.16841292469498
   8     -0.13621814779143
   9         0.15143919022
  10    1.2835861127638e-15
  11     0.057166763445788
  12     -0.16841292492931
  13     -0.13621814779626
  14     -0.15143919011044
  15    5.0129093755364e-16
  16     -0.11432132797668
  17       0.3367819047578
  18    -9.2450588925486e-11
  19    -0.084933819929509
  20    1.1745355271866e-16
  21     0.057166763366244
  22     -0.16841292469497
  23      0.13621814779143
  24        -0.15143919022
  25    1.0226125543529e-16
  26     0.057166763445788
  27     -0.16841292492931
  28      0.13621814779627
  29      0.15143919011044
  30    7.359472875689e-17
  31      0.17890767518578
  32    -0.089279370411853
  33    -0.089279370536234
  34      0.17890767518577
  35    -0.089279370411847
  36    -0.089279370536234
 Sym= A
 Ene=   -0.6620831027
 Spin= Alpha
 Occup=    2.00000
   1    -0.0086726675325525
   2     0.035344942706844
   3    -3.0690192122453e-15
   4      0.23443373207018
   5    -2.6008475210422e-15
   6    -0.0087892533857362
   7     0.035736788177222
   8      0.20313328690338
   9      0.11710651525179
  10    -1.9602126754595e-15
  11    -0.0087892533857389
  12     0.035736788177232
  13      0.20313328690337
  14      -0.1171065152518
  15    -1.2002823191049e-15
  16    -0.0086726675325526
  17     0.035344942706843
  18    3.900466230056e-15
  19     -0.23443373207016
  20    -1.558267451491e-15
  21    -0.0087892533857383
  22     0.035736788177231
  23     -0.20313328690337
  24     -0.11710651525178
  25    -1.7714587924764e-15
  26    -0.0087892533857382
  27     0.035736788177229
  28     -0.20313328690337
  29      0.11710651525178
  30    -2.0841696250722e-15
  31      0.17552328325198
  32      0.17568547474828
  33      0.17568547474827
  34      0.17552328325197
  35      0.17568547474826
  36      0.17568547474826
 Sym= A
 Ene=   -0.5953065461
 Spin= Alpha
 Occup=    2.00000
   1     0.065329205366451
   2     -0.21890331074241
   3    -8.9068900715817e-15
   4     -0.16416583939204
   5    -4.49690025981e-16
   6      -0.0653687149348
   7      0.21904095702173
   8      0.14170148996437
   9     0.081946073330502
  10    4.3447159802687e-16
  11     0.065368714934804
  12     -0.21904095702174
  13     -0.14170148996435
  14     0.081946073330506
  15    3.3586771777995e-17
  16    -0.065329205366452
  17      0.21890331074241
  18    -1.4824240323726e-14
  19     -0.16416583939204
  20    -2.1348902188803e-16
  21     0.065368714934802
  22     -0.21904095702173
  23      0.14170148996437
  24     0.081946073330498
  25    -2.8645116158166e-16
  26    -0.065368714934802
  27      0.21904095702173
  28     -0.14170148996435
  29      0.08194607333051
  30    -5.0238379322391e-16
  31     -0.23192280479067
  32      0.23156460999464
  33     -0.23156460999463
  34      0.23192280479067
  35     -0.23156460999464
  36      0.23156460999463
 Sym= A
 Ene=   -0.5527252568
 Spin= Alpha
 Occup=    2.00000
   1    8.5231000126804e-17
   2    -5.0623040578512e-16
   3      0.33184811857354
   4    -2.1875335796643e-14
   5    -1.1141690390398e-15
   6    7.1541625688469e-05
   7    -0.00022802128389424
   8     -0.16543509639921
   9      0.28814281211648
  10    -8.4792197687833e-16
  11    7.1541625690861e-05
  12    -0.00022802128389775
  13      -0.1654350963992
  14     -0.28814281211647
  15    1.6201869604245e-16
  16    -5.2535312980352e-16
  17    -1.0546364695307e-15
  18      0.33184811857354
  19    -2.3477669695781e-14
  20    1.6016869538218e-16
  21    -7.1541625686403e-05
  22    0.00022802128388808
  23      -0.1654350963992
  24      0.28814281211648
  25    4.8990102408051e-16
  26    -7.1541625692027e-05
  27     0.000228021283903
  28     -0.16543509639919
  29     -0.28814281211648
  30    3.5778537883441e-16
  31    -1.7753788418342e-14
  32    0.00064698618923005
  33    0.0006469861892297
  34    2.4691526903107e-14
  35    -0.00064698618924154
  36    -0.00064698618923069
 Sym= A
 Ene=   -0.5341839794
 Spin= Alpha
 Occup=    2.00000
   1     0.026840109163044
   2    -0.085238439977643
   3    2.3667231862254e-14
   4      0.36881536876489
   5    2.9092071761186e-16
   6     0.013339061673574
   7      -0.0423284141743
   8      0.20413757149606
   9     0.015657673040632
  10    1.4541418387933e-15
  11    -0.013339061673578
  12     0.042328414174309
  13     -0.20413757149612
  14     0.015657673040646
  15    1.7185009673049e-15
  16    -0.026840109163043
  17     0.085238439977644
  18    2.1608912067779e-14
  19      0.36881536876489
  20    1.4817843179113e-15
  21    -0.013339061673574
  22     0.042328414174297
  23      0.20413757149607
  24     0.015657673040641
  25    1.4767703307324e-15
  26     0.013339061673578
  27    -0.042328414174311
  28     -0.20413757149612
  29     0.015657673040633
  30    1.0015121327364e-15
  31      0.28268113029153
  32      0.14166082616672
  33     -0.14166082616676
  34     -0.28268113029154
  35     -0.14166082616673
  36      0.14166082616676
 Sym= A
 Ene=   -0.5341461424
 Spin= Alpha
 Occup=    2.00000
   1    -1.6379667352761e-18
   2    1.8700356885767e-15
   3     -0.10308536781263
   4    2.7973486069112e-14
   5    1.1311009086185e-15
   6      0.02317311641435
   7     -0.07353912331346
   8      0.25158641970824
   9      0.20325287655307
  10    -4.2935396801453e-16
  11     0.023173116414343
  12    -0.073539123313428
  13       0.2515864197082
  14     -0.20325287655307
  15    -1.1958920693671e-15
  16    9.7938348370656e-16
  17    -5.0392911951366e-15
  18     -0.10308536781261
  19    3.156115281559e-14
  20    -2.5701075275471e-15
  21    -0.023173116414349
  22     0.073539123313451
  23      0.25158641970823
  24      0.20325287655308
  25    -1.1878480545287e-15
  26    -0.023173116414343
  27     0.073539123313434
  28      0.25158641970822
  29     -0.20325287655308
  30    1.4787122246598e-16
  31    3.0531468503504e-14
  32      0.24502711694999
  33      0.24502711694997
  34    -2.6136987192144e-14
  35     -0.24502711694999
  36     -0.24502711694999
 Sym= A
 Ene=    -0.455470885
 Spin= Alpha
 Occup=    2.00000
   1    -5.1536404076276e-17
   2    1.8713659978827e-16
   3    1.2389233448026e-14
   4    -1.4562261799497e-15
   5      0.33440992473989
   6    -3.0341480686954e-16
   7    9.5468394222221e-16
   8    -1.0015182702958e-14
   9     4.63537636882e-15
  10       0.3344058700858
  11    6.420734719904e-16
  12    -2.1346589597916e-15
  13    1.1933080145139e-14
  14    -1.259439641301e-15
  15       0.3344058700858
  16    -8.2164155635014e-17
  17    5.542737142127e-16
  18    -1.3631994699392e-14
  19    -9.7565164454419e-16
  20      0.33440992473989
  21    -2.3185273153575e-16
  22    -4.4596616701131e-16
  23    9.8597563822311e-15
  24    -2.2894346262112e-15
  25      0.33440587008582
  26    -2.7292338794857e-16
  27    1.1165894133437e-15
  28    -1.1120324333312e-14
  29    4.8524105929925e-16
  30      0.33440587008581
  31    -2.6357913056021e-15
  32    -7.6150477709799e-15
  33    1.3727875060422e-14
  34    -4.842918350814e-16
  35    -5.6371314356348e-15
  36    1.0350927076162e-14
 Sym= A
 Ene=   -0.4331286668
 Spin= Alpha
 Occup=    2.00000
   1    -0.0080506724413229
   2     0.018318162190307
   3    -1.0188139447848e-14
   4     -0.28178475793938
   5    -1.7699863518616e-15
   6    0.0040280423505587
   7    -0.009148845045629
   8    -0.022716146735189
   9      0.32112044864844
  10    -2.8876115849168e-15
  11     0.004028042350556
  12    -0.0091488450456149
  13     -0.02271614673522
  14     -0.32112044864844
  15    -1.7633190698266e-15
  16    -0.0080506724413236
  17     0.018318162190308
  18    1.5733526227568e-14
  19      0.28178475793938
  20    -1.9656647434841e-15
  21    0.0040280423505566
  22    -0.0091488450456195
  23     0.022716146735196
  24     -0.32112044864843
  25    -2.1452518367452e-15
  26     0.004028042350556
  27    -0.0091488450456155
  28     0.022716146735223
  29      0.32112044864843
  30    -2.2457334590839e-15
  31     -0.29733142885724
  32      0.14871643920612
  33      0.14871643920609
  34     -0.29733142885724
  35      0.14871643920611
  36      0.14871643920609
 Sym= A
 Ene=   -0.4330209704
 Spin= Alpha
 Occup=    2.00000
   1     -4.3804450608e-17
   2    1.7679180877899e-15
   3     -0.33423291279921
   4    1.1153515096049e-14
   5    1.0360747902969e-14
   6    0.0069724759640446
   7    -0.015848288619287
   8      0.29490827452446
   9    -0.022662273776959
  10    1.019988352881e-14
  11    -0.0069724759640454
  12      0.01584828861929
  13     -0.29490827452447
  14    -0.022662273776925
  15    1.2904932663576e-14
  16    3.4791598000233e-17
  17    -1.8200984232223e-15
  18      0.33423291279921
  19    -1.0384344820072e-14
  20    1.4230834436439e-14
  21    0.0069724759640448
  22    -0.015848288619285
  23     -0.29490827452447
  24     0.022662273776954
  25    1.3963232013176e-14
  26    -0.0069724759640443
  27     0.015848288619284
  28      0.29490827452445
  29     0.022662273776928
  30    1.2589307424805e-14
  31    1.4262893215479e-14
  32      0.25755535918273
  33     -0.25755535918276
  34    1.5177739867926e-14
  35      0.25755535918273
  36     -0.25755535918275
 Sym= A
 Ene=   -0.2794941618
 Spin= Alpha
 Occup=    2.00000
   1    1.375219475069e-17
   2    -5.3752508729377e-17
   3    -1.0523615195509e-15
   4    -3.8301556112546e-17
   5    2.0675182770929e-10
   6    2.4347302875824e-16
   7    -8.7318393970021e-16
   8    6.020005809689e-17
   9    -4.6792901349238e-16
  10      0.46050356423893
  11    -1.9699192666253e-16
  12    5.2398275117092e-17
  13    -8.5672938427545e-16
  14    -1.6188306284776e-16
  15      0.46050356403219
  16    1.5810820613525e-16
  17    -7.6997821396373e-16
  18    1.9748895600784e-15
  19    4.6401978133212e-16
  20    -2.0673828129313e-10
  21    1.6928328831464e-16
  22    1.9252106762341e-16
  23    -1.0050318534944e-15
  24    1.1272859443817e-15
  25     -0.46050356423893
  26    -2.162041212969e-16
  27    4.1653219622561e-16
  28    5.9068960094071e-16
  29    6.7617872360004e-16
  30     -0.46050356403218
  31    -2.731705035551e-16
  32    2.554128949272e-16
  33    1.2295861406578e-15
  34    -2.3856516501723e-17
  35    -2.6321342862162e-16
  36    -3.6344603352488e-16
 Sym= A
 Ene=   -0.2794889487
 Spin= Alpha
 Occup=    2.00000
   1    7.6041853842608e-17
   2    -2.5620472871703e-16
   3    -5.7764349716808e-16
   4    -5.7774286426365e-17
   5      0.53175482940659
   6    5.3510282502306e-16
   7    -1.4210956231702e-15
   8    1.2330239059088e-15
   9    3.1111614322651e-16
  10      0.26586653085948
  11    1.3423216676562e-16
  12    3.4210197293456e-16
  13    -2.4588465433232e-15
  14    3.6795555380081e-16
  15     -0.26586653121758
  16    3.3184594315698e-17
  17    -2.8128165565049e-16
  18    1.691041129234e-15
  19    -2.9253725273953e-16
  20     -0.53175482940658
  21    -2.4656529714824e-16
  22    1.1048937029845e-16
  23    -1.5456007913749e-15
  24    -5.088858067912e-16
  25     -0.26586653085949
  26    -4.3974979873083e-16
  27    1.1136987648034e-15
  28    1.4074727041385e-16
  29    -1.6614775950685e-16
  30      0.26586653121757
  31    8.7053188420063e-16
  32    6.8115104728315e-18
  33    -1.6798996816391e-15
  34    -3.9157145376425e-16
  35    2.6225812272066e-15
  36    1.1861941558641e-15
 Sym= A
 Ene=    0.2683232813
 Spin= Alpha
 Occup=    0.00000
   1    1.1319930483772e-16
   2    -5.7620616227693e-16
   3    -3.7833715563799e-16
   4    -9.3077907699429e-16
   5      0.65794606760291
   6    -2.2452602357013e-16
   7    8.3708418062154e-16
   8    1.5261033699738e-16
   9    3.7390615379438e-16
  10     -0.32897383040713
  11    -7.4736578724973e-17
  12    9.1739745404482e-16
  13    -2.2245107507989e-16
  14    -1.0600712588708e-15
  15     -0.32897383024841
  16    -2.5867268799705e-17
  17    2.4708403445453e-19
  18    -6.1445853017276e-16
  19    -1.3434544778949e-15
  20      0.65794606760291
  21    -9.7260750399224e-17
  22    3.9164569480551e-18
  23    6.7654072420864e-16
  24    -4.133277608446e-16
  25     -0.32897383040711
  26    2.2670353824267e-16
  27    -2.5543468607614e-16
  28    -1.0771661171127e-15
  29    -1.1754852839037e-15
  30     -0.32897383024843
  31    1.7585523002147e-15
  32    -9.1274442523572e-17
  33    -8.4496304112821e-16
  34    -8.8216419992025e-16
  35    -1.1269537319928e-16
  36    -1.653320057316e-17
 Sym= A
 Ene=    0.2683414658
 Spin= Alpha
 Occup=    0.00000
   1    -1.7146154714939e-17
   2    1.3227529254283e-16
   3    1.551312404418e-16
   4    -2.0862897476748e-16
   5    -9.1633839845883e-11
   6    -2.21649241711e-16
   7    1.6994114057619e-15
   8    1.4295141508341e-16
   9    -1.1748735449824e-15
  10     -0.56980225203361
  11    8.7093465330917e-17
  12    -6.6962571515148e-16
  13    7.5986221042814e-16
  14    -1.2065449790647e-15
  15      0.56980225212524
  16    -8.4925055562278e-17
  17    4.7182358373406e-16
  18    1.9213173653752e-16
  19    -5.0918173596468e-16
  20    -9.1614633557044e-11
  21    -2.7889645102151e-16
  22    1.4162889329477e-15
  23    6.4249939214976e-17
  24    -5.360813967064e-16
  25     -0.56980225203362
  26    3.5435587795554e-17
  27    -3.5042958865341e-16
  28    -8.6596645400504e-16
  29    4.5323778184282e-16
  30      0.56980225212526
  31    3.2763574707056e-16
  32    -9.8983929965883e-16
  33    -1.0311579607698e-15
  34    -6.576711623064e-16
  35    -1.4677278092762e-15
  36    -3.3042138470788e-16
 Sym= A
 Ene=    0.5027348462
 Spin= Alpha
 Occup=    0.00000
   1    1.2900811382831e-16
   2    -7.2417072903432e-16
   3    1.1110383550762e-15
   4    -1.5687422863794e-15
   5      0.52191205321379
   6    -3.9470943576424e-16
   7    2.9024978714434e-15
   8    3.0405940849425e-15
   9    -3.7933853476355e-16
  10     -0.52192796581946
  11    -3.3306275733219e-16
  12    2.3550997976001e-15
  13    2.5466410193082e-15
  14    -3.7106080015918e-15
  15      0.52192796581946
  16    -2.8244595688955e-17
  17    3.6157974179729e-16
  18    3.0552190172743e-16
  19    -2.7048170275798e-15
  20      -0.5219120532138
  21    -1.9757632374694e-16
  22    3.7022278273637e-16
  23    1.7492361432832e-15
  24    -6.4781601553024e-16
  25      0.52192796581944
  26    -3.053886761826e-17
  27    8.8755709444735e-17
  28    9.6805718223599e-16
  29    -1.1654202155801e-15
  30     -0.52192796581944
  31    2.1235122390997e-15
  32    -3.4622798258795e-15
  33    -5.2676114814276e-15
  34    -2.8273559125048e-15
  35    5.2202942603376e-16
  36    1.1843971899027e-15
 Sym= A
 Ene=    0.5807591944
 Spin= Alpha
 Occup=    0.00000
   1     0.052651371043283
   2     -0.33482203299279
   3    -2.1989204583291e-14
   4      -0.3158452708111
   5    1.0331338730693e-15
   6     0.052669504616947
   7     -0.33486081680145
   8     -0.27399935299742
   9     -0.15828001275871
  10    -2.4888396488363e-15
  11     0.052669504616942
  12     -0.33486081680142
  13     -0.27399935299743
  14      0.15828001275861
  15    1.7863025826734e-15
  16     0.052651371043299
  17     -0.33482203299289
  18    1.0681023558255e-14
  19      0.31584527081103
  20    -1.1513350551188e-15
  21      0.05266950461693
  22     -0.33486081680135
  23      0.27399935299743
  24      0.15828001275866
  25    5.9961761751156e-16
  26     0.052669504616965
  27     -0.33486081680157
  28      0.27399935299745
  29     -0.15828001275869
  30    -8.278776334341e-16
  31      0.51175475426847
  32      0.51222707309444
  33      0.51222707309437
  34      0.51175475426844
  35      0.51222707309436
  36      0.51222707309451
 Sym= A
 Ene=    0.6498259426
 Spin= Alpha
 Occup=    0.00000
   1    -9.3816845956679e-17
   2    -2.8218530075194e-15
   3      0.32489737641633
   4    -2.052251046608e-13
   5    -2.8395737697703e-15
   6     -0.02599708680573
   7      0.17071952096453
   8      0.49778813451088
   9      0.09995291588409
  10    2.7209475989613e-15
  11    -0.025997086805733
  12      0.17071952096456
  13      0.49778813451093
  14    -0.099952915884382
  15    -2.0612496963116e-15
  16    -1.7109638106565e-14
  17    1.150234162414e-13
  18      0.32489737641638
  19    -2.3253676959533e-13
  20    2.8011695683348e-15
  21     0.025997086805717
  22     -0.17071952096444
  23      0.49778813451082
  24     0.099952915884132
  25    -2.4224452617846e-15
  26     0.025997086805757
  27     -0.17071952096471
  28      0.49778813451095
  29    -0.099952915884389
  30    1.9560591495053e-15
  31    2.0489217622008e-13
  32     -0.56649662521685
  33     -0.56649662521707
  34    -2.8450354070952e-13
  35      0.56649662521679
  36      0.56649662521715
 Sym= A
 Ene=    0.6501321686
 Spin= Alpha
 Occup=    0.00000
   1    -0.029867031029282
   2      0.19632109657017
   3    1.1859321734134e-13
   4      0.55547157421237
   5    2.7895025662643e-15
   6    -0.015184259818649
   7     0.099631776661203
   8      0.10000476383577
   9      0.38262062982981
  10    -3.3357576418897e-15
  11     0.015184259818625
  12     -0.09963177666104
  13     -0.10000476383545
  14       0.3826206298297
  15    1.1917272376866e-15
  16     0.029867031029309
  17     -0.19632109657035
  18    1.1467699869633e-13
  19      0.55547157421241
  20    -1.2648004748119e-15
  21     0.015184259818643
  22    -0.099631776661166
  23      0.10000476383583
  24       0.3826206298298
  25    5.0490257910968e-16
  26    -0.015184259818624
  27     0.099631776661038
  28     -0.10000476383538
  29      0.38262062982973
  30    -1.7825658215769e-15
  31     -0.65368376224998
  32     -0.32778679858293
  33      0.32778679858253
  34      0.65368376225011
  35      0.32778679858296
  36     -0.32778679858248
 Sym= A
 Ene=    0.7210948019
 Spin= Alpha
 Occup=    0.00000
   1     -0.12026700308056
   2      0.75447842935998
   3    -3.189927693797e-13
   4     0.063751714783947
   5    9.0277607658458e-16
   6      0.12033068467251
   7     -0.75483802951805
   8    -0.054701919598316
   9    -0.030410185504211
  10    -1.9421507629171e-18
  11     -0.12033068467254
  12      0.75483802951824
  13     0.054701919598245
  14     -0.03041018550431
  15    5.4457895969174e-16
  16      0.12026700308058
  17     -0.75447842936014
  18    2.2871420572729e-13
  19     0.063751714783848
  20    3.1653616473504e-16
  21     -0.12033068467272
  22      0.75483802951938
  23    -0.054701919598376
  24    -0.030410185504004
  25    5.8845246913527e-16
  26       0.1203306846727
  27     -0.75483802951926
  28     0.054701919598353
  29    -0.030410185503944
  30    9.3397780956565e-17
  31     -0.45004589529909
  32       0.4488718606121
  33     -0.44887186061219
  34      0.45004589529907
  35     -0.44887186061271
  36      0.44887186061259
 Sym= A
 Ene=    0.7339290856
 Spin= Alpha
 Occup=    0.00000
   1    4.1372680786357e-12
   2    -2.675960727029e-11
   3      0.43045845254476
   4    1.0911080303037e-12
   5    -9.3510066412216e-16
   6      0.14100054110139
   7     -0.91144674498169
   8    -0.077687734964872
   9      0.20383250368589
  10    2.1191418604136e-16
  11     -0.14100054110559
  12      0.91144674500882
  13     0.077687734954366
  14      0.20383250366976
  15    1.965008584344e-16
  16    4.2978782935346e-12
  17    -2.7771589059761e-11
  18     -0.43045845254459
  19    -9.7605283561356e-13
  20    5.0415531047649e-16
  21      0.14100054110124
  22     -0.91144674498069
  23     0.077687734964911
  24     -0.20383250368602
  25    -1.2246084116566e-15
  26     -0.14100054110545
  27      0.91144674500796
  28    -0.077687734954219
  29     -0.20383250366979
  30    5.243994566135e-16
  31    1.1857678319563e-11
  32      0.40637227612908
  33      -0.4063722761412
  34    1.2477790045928e-11
  35      0.40637227612856
  36     -0.40637227614059
 Sym= A
 Ene=    0.7341808356
 Spin= Alpha
 Occup=    0.00000
   1     -0.16285885231035
   2       1.0529161689447
   3    1.1093231331693e-11
   4    -0.040845271794405
   5    6.0546783475838e-16
   6     0.081408613415163
   7     -0.52627975369009
   8      0.20440083382823
   9     -0.31288499554626
  10    -1.2157844035723e-15
  11     0.081408613407836
  12     -0.52627975364273
  13      0.20440083383234
  14      0.31288499555694
  15    3.8006149046648e-16
  16     -0.16285885231034
  17       1.0529161689446
  18    -1.1195804869513e-11
  19     0.040845271794485
  20    -5.3122944761934e-16
  21     0.081408613415139
  22     -0.52627975368994
  23     -0.20440083382838
  24      0.31288499554644
  25    -2.4527997509696e-20
  26     0.081408613407869
  27     -0.52627975364295
  28     -0.20440083383232
  29     -0.31288499555681
  30    -8.1324666493828e-16
  31     -0.46887477505448
  32      0.23423110100605
  33      0.23423110098492
  34     -0.46887477505436
  35      0.23423110100594
  36      0.23423110098497
 Sym= A
 Ene=    0.8847887173
 Spin= Alpha
 Occup=    0.00000
   1    -6.6243304890956e-16
   2    1.0215740557995e-14
   3     -0.22739077913478
   4    -1.355241404034e-12
   5    -3.1723182009096e-16
   6    -0.024180599457727
   7      0.17463484251113
   8     -0.55009406124776
   9     -0.44837600134056
  10    8.2588943642038e-16
  11     0.024180599457763
  12      -0.1746348425114
  13      0.55009406124921
  14     -0.44837600134071
  15    -6.2786188641962e-16
  16    -8.5168092324671e-14
  17    6.1304997357881e-13
  18      0.22739077913474
  19    1.2705177867632e-12
  20    9.5412129855631e-17
  21    -0.024180599457759
  22      0.17463484251137
  23      0.55009406124744
  24      0.44837600134113
  25    1.9829398599896e-16
  26     0.024180599457808
  27     -0.17463484251172
  28     -0.55009406124889
  29      0.44837600134121
  30    2.7929236052732e-16
  31    1.0534686993918e-12
  32      0.48199906102139
  33     -0.48199906102234
  34    7.641225079115e-13
  35      0.48199906102132
  36     -0.48199906102219
 Sym= A
 Ene=    0.8848079599
 Spin= Alpha
 Occup=    0.00000
   1     0.027686777194543
   2     -0.19993813528907
   3    -3.7748976595699e-13
   4      0.80917586831882
   5    -2.9109483839988e-18
   6    -0.013893157996899
   7      0.10035429777864
   8     -0.44815850480138
   9    -0.032301925036962
  10    -5.764158372708e-16
  11    -0.013893157996787
  12      0.10035429777784
  13     -0.44815850479986
  14     0.032301925035132
  15    2.256405389499e-16
  16     0.027686777194599
  17     -0.19993813528948
  18    3.5413600142762e-13
  19     -0.80917586831878
  20    -3.1564544181888e-16
  21    -0.013893157996862
  22      0.10035429777838
  23      0.44815850480164
  24      0.03230192503659
  25    -2.0660422214135e-16
  26    -0.013893157996822
  27      0.10035429777809
  28      0.44815850479959
  29    -0.032301925035518
  30    -2.7091168382862e-16
  31     -0.55762946019055
  32      0.27825362368275
  33       0.2782536236813
  34     -0.55762946019038
  35      0.27825362368287
  36      0.27825362368116
 Sym= A
 Ene=    0.8957375365
 Spin= Alpha
 Occup=    0.00000
   1    -0.095920916181392
   2      0.68757780510781
   3    1.6041814807924e-10
   4       0.0745888437655
   5    -6.5104713808713e-16
   6    -0.047754751742002
   7      0.34239531307793
   8      0.39438871493871
   9     -0.60781931445347
  10    6.7415975810972e-16
  11     0.047754751773902
  12     -0.34239531330659
  13     -0.39438871487964
  14     -0.60781931430194
  15    -3.6611748890963e-16
  16     0.095920916181342
  17     -0.68757780510747
  18    1.6067662670689e-10
  19      0.07458884376602
  20    7.7965331211408e-17
  21     0.047754751741995
  22     -0.34239531307787
  23      0.39438871493886
  24     -0.60781931445306
  25    -1.3485037114569e-16
  26    -0.047754751773847
  27      0.34239531330622
  28     -0.39438871488045
  29      -0.6078193143016
  30    6.4267264763328e-17
  31      -0.3087594060603
  32     -0.15382733441277
  33      0.15382733451527
  34      0.30875940606056
  35      0.15382733441302
  36     -0.15382733451579
 Sym= A
 Ene=    0.8957844507
 Spin= Alpha
 Occup=    0.00000
   1    1.8421980876333e-11
   2    -1.3206074860597e-10
   3       0.8355080441824
   4    -1.4300371317521e-11
   5    6.5359680266836e-16
   6     0.082950098724974
   7     -0.59462665660497
   8      0.15280215258456
   9     -0.39421806743263
  10    -6.4034404524188e-16
  11      0.08295009870664
  12     -0.59462665647351
  13      0.15280215273615
  14      0.39421806766608
  15    -1.1077464832353e-16
  16    -1.8433816763933e-11
  17    1.3213710429406e-10
  18      0.83550804418241
  19    -1.4304170468493e-11
  20    7.6678762098223e-16
  21    -0.082950098724989
  22      0.59462665660507
  23      0.15280215258455
  24     -0.39421806743248
  25    9.7798429320528e-16
  26    -0.082950098706608
  27      0.59462665647331
  28      0.15280215273616
  29      0.39421806766616
  30    -3.5220441442585e-16
  31    5.927707936002e-11
  32      0.26712624107411
  33      0.26712624101498
  34    -5.9311781944927e-11
  35      -0.2671262410741
  36     -0.26712624101491
 Sym= A
 Ene=     1.084717981
 Spin= Alpha
 Occup=    0.00000
   1    1.6028086037462e-15
   2    -1.4188137104111e-14
   3     -0.75552534701154
   4    2.083219950929e-14
   5    1.9994935931823e-16
   6    -1.2341811279774e-05
   7    7.2254517812231e-05
   8     -0.37752776233396
   9      0.65452071319339
  10    -3.326745187872e-16
  11    1.2341811290459e-05
  12    -7.2254517884362e-05
  13      0.37752776233398
  14      0.65452071319343
  15    5.3578517849529e-16
  16    -3.9018777157261e-15
  17    2.9631882740685e-14
  18      0.75552534701162
  19    2.8704324327972e-14
  20    -1.2919057571819e-16
  21    -1.2341811286493e-05
  22    7.2254517858942e-05
  23      0.37752776233392
  24     -0.65452071319341
  25    2.2233810081674e-16
  26    1.2341811282446e-05
  27    -7.225451782535e-05
  28      -0.3775277623339
  29     -0.65452071319339
  30    -2.3792203186972e-16
  31    -1.1140158794597e-14
  32    -0.00035004859285846
  33    0.0003500485928939
  34    1.1835471259855e-14
  35    -0.0003500485929037
  36    0.00035004859289844
 Sym= A
 Ene=     1.149187658
 Spin= Alpha
 Occup=    0.00000
   1     0.060831583880354
   2     -0.45916486388582
   3    -8.037579233906e-15
   4      0.67445433479451
   5    9.6172304126668e-16
   6    -0.060906706685056
   7      0.45980368047723
   8     -0.58376416515689
   9     -0.33745945655775
  10    -1.9226145047586e-16
  11     0.060906706685049
  12     -0.45980368047718
  13      0.58376416515687
  14     -0.33745945655778
  15    2.5666362590869e-17
  16    -0.060831583880349
  17      0.45916486388579
  18    -3.8790712676127e-14
  19       0.6744543347945
  20    1.0753953131117e-17
  21     0.060906706685051
  22     -0.45980368047719
  23     -0.58376416515688
  24     -0.33745945655769
  25    9.2038561932628e-17
  26    -0.060906706685047
  27      0.45980368047716
  28      0.58376416515689
  29     -0.33745945655771
  30    -3.4778948455529e-16
  31     -0.28050017885609
  32      0.28006027821137
  33     -0.28006027821138
  34       0.2805001788561
  35     -0.28006027821136
  36      0.28006027821139
