[Molden Format]
made by pyscf v[2.12.1]
[Atoms] (AU)
C   1   6     0.00000000000000     2.63805766989283     0.00000000000000
C   2   6     2.28467888459916     1.31902883494641     0.00000000000000
C   3   6     2.28467888459916    -1.31902883494641     0.00000000000000
C   4   6     0.00000000000000    -2.63805766989283     0.00000000000000
C   5   6    -2.28467888459916    -1.31902883494641     0.00000000000000
C   6   6    -2.28467888459916     1.31902883494641     0.00000000000000
H   7   1     0.00000000000000     4.68463106279679     0.00000000000000
H   8   1     4.05724198944119     2.34326039446068     0.00000000000000
H   9   1     4.05724198944119    -2.34326039446068     0.00000000000000
H   10   1     0.00000000000000    -4.68463106279679     0.00000000000000
H   11   1    -4.05724198944119    -2.34326039446068     0.00000000000000
H   12   1    -4.05724198944119     2.34326039446068     0.00000000000000
[GTO]
1 0
 s    6 1.00
             3047.5249  0.0018347001629433
             457.36951    0.01403730124668
             103.94869   0.068842606114048
             29.210155    0.23218442062076
              9.286663    0.46794134155879
              3.163927    0.36231203217765
 s    3 1.00
             7.8682724   -0.11933240861517
             1.8812885   -0.16085421161283
             0.5442493     1.1434564825515
 s    1 1.00
             0.1687144                   1
 p    3 1.00
             7.8682724   0.068999095584993
             1.8812885    0.31642397975315
             0.5442493    0.74430825237435
 p    1 1.00
             0.1687144                   1
 d    1 1.00
                   0.8                   1

2 0
 s    6 1.00
             3047.5249  0.0018347001629433
             457.36951    0.01403730124668
             103.94869   0.068842606114048
             29.210155    0.23218442062076
              9.286663    0.46794134155879
              3.163927    0.36231203217765
 s    3 1.00
             7.8682724   -0.11933240861517
             1.8812885   -0.16085421161283
             0.5442493     1.1434564825515
 s    1 1.00
             0.1687144                   1
 p    3 1.00
             7.8682724   0.068999095584993
             1.8812885    0.31642397975315
             0.5442493    0.74430825237435
 p    1 1.00
             0.1687144                   1
 d    1 1.00
                   0.8                   1

3 0
 s    6 1.00
             3047.5249  0.0018347001629433
             457.36951    0.01403730124668
             103.94869   0.068842606114048
             29.210155    0.23218442062076
              9.286663    0.46794134155879
              3.163927    0.36231203217765
 s    3 1.00
             7.8682724   -0.11933240861517
             1.8812885   -0.16085421161283
             0.5442493     1.1434564825515
 s    1 1.00
             0.1687144                   1
 p    3 1.00
             7.8682724   0.068999095584993
             1.8812885    0.31642397975315
             0.5442493    0.74430825237435
 p    1 1.00
             0.1687144                   1
 d    1 1.00
                   0.8                   1

4 0
 s    6 1.00
             3047.5249  0.0018347001629433
             457.36951    0.01403730124668
             103.94869   0.068842606114048
             29.210155    0.23218442062076
              9.286663    0.46794134155879
              3.163927    0.36231203217765
 s    3 1.00
             7.8682724   -0.11933240861517
             1.8812885   -0.16085421161283
             0.5442493     1.1434564825515
 s    1 1.00
             0.1687144                   1
 p    3 1.00
             7.8682724   0.068999095584993
             1.8812885    0.31642397975315
             0.5442493    0.74430825237435
 p    1 1.00
             0.1687144                   1
 d    1 1.00
                   0.8                   1

5 0
 s    6 1.00
             3047.5249  0.0018347001629433
             457.36951    0.01403730124668
             103.94869   0.068842606114048
             29.210155    0.23218442062076
              9.286663    0.46794134155879
              3.163927    0.36231203217765
 s    3 1.00
             7.8682724   -0.11933240861517
             1.8812885   -0.16085421161283
             0.5442493     1.1434564825515
 s    1 1.00
             0.1687144                   1
 p    3 1.00
             7.8682724   0.068999095584993
             1.8812885    0.31642397975315
             0.5442493    0.74430825237435
 p    1 1.00
             0.1687144                   1
 d    1 1.00
                   0.8                   1

6 0
 s    6 1.00
             3047.5249  0.0018347001629433
             457.36951    0.01403730124668
             103.94869   0.068842606114048
             29.210155    0.23218442062076
              9.286663    0.46794134155879
              3.163927    0.36231203217765
 s    3 1.00
             7.8682724   -0.11933240861517
             1.8812885   -0.16085421161283
             0.5442493     1.1434564825515
 s    1 1.00
             0.1687144                   1
 p    3 1.00
             7.8682724   0.068999095584993
             1.8812885    0.31642397975315
             0.5442493    0.74430825237435
 p    1 1.00
             0.1687144                   1
 d    1 1.00
                   0.8                   1

7 0
 s    3 1.00
             18.731137    0.03349459952309
             2.8253937    0.23472694665786
             0.6401217    0.81375731841339
 s    1 1.00
             0.1612778                   1

8 0
 s    3 1.00
             18.731137    0.03349459952309
             2.8253937    0.23472694665786
             0.6401217    0.81375731841339
 s    1 1.00
             0.1612778                   1

9 0
 s    3 1.00
             18.731137    0.03349459952309
             2.8253937    0.23472694665786
             0.6401217    0.81375731841339
 s    1 1.00
             0.1612778                   1

10 0
 s    3 1.00
             18.731137    0.03349459952309
             2.8253937    0.23472694665786
             0.6401217    0.81375731841339
 s    1 1.00
             0.1612778                   1

11 0
 s    3 1.00
             18.731137    0.03349459952309
             2.8253937    0.23472694665786
             0.6401217    0.81375731841339
 s    1 1.00
             0.1612778                   1

12 0
 s    3 1.00
             18.731137    0.03349459952309
             2.8253937    0.23472694665786
             0.6401217    0.81375731841339
 s    1 1.00
             0.1612778                   1

[5d]
[7f]
[9g]

[MO]
 Sym= A
 Ene=    -11.23153852
 Spin= Alpha
 Occup=    2.00000
   1      0.39988730929499
   2    0.0092045504139822
   3    -0.0026742660615804
   4    -1.8332955481339e-15
   5    0.00011569381011771
   6    -8.8385686911022e-17
   7    7.7227017747685e-15
   8    -0.00045758432994283
   9    3.3336351714945e-17
  10    -4.7042827097808e-05
  11    1.9727289264894e-17
  12    8.2902296174981e-17
  13    -0.00010331831976709
  14    7.6759831560646e-16
  15      0.40979739665075
  16     0.009459495475336
  17    -0.0028712530743381
  18    9.3875098100173e-05
  19    5.7162938329406e-05
  20    -1.4057633177264e-18
  21    -0.00035825083974679
  22    -0.00022340842380189
  23    7.4797228296809e-19
  24    -5.4872385033758e-05
  25    2.1467344394363e-18
  26    -3.0132856924095e-19
  27    5.1460092753872e-05
  28    8.3946131755829e-05
  29      0.40979739666313
  30    0.0094594954756274
  31    -0.0028712530743404
  32    9.3875098106152e-05
  33    -5.7162938315334e-05
  34    2.5344304818834e-18
  35    -0.0003582508398335
  36    0.00022340842378317
  37    -1.0341424413905e-18
  38    -5.4872385035286e-05
  39    -3.5873399341512e-20
  40    4.8434530292783e-19
  41    5.1460092744836e-05
  42    -8.3946131762022e-05
  43      0.39988730932577
  44    0.0092045504147466
  45    -0.002674266062047
  46    -2.8737323371479e-15
  47    -0.00011569381010862
  48    -9.2515550165843e-19
  49    1.2244211185653e-14
  50    0.00045758432984937
  51    2.9304645072624e-19
  52    -4.7042827104557e-05
  53    -5.8289408091257e-20
  54    -3.7874067043476e-20
  55    -0.00010331831976577
  56    -2.0827403088114e-15
  57      0.40979739665523
  58    0.0094594954754341
  59    -0.0028712530742492
  60    -9.3875098108967e-05
  61    -5.7162938314582e-05
  62    -1.7271533294189e-20
  63    0.0003582508398429
  64    0.00022340842377565
  65    -8.7339032833731e-19
  66    -5.4872385032723e-05
  67    -3.6078231015768e-19
  68    4.2843727669931e-19
  69    5.1460092744345e-05
  70    8.3946131763193e-05
  71       0.4097973966458
  72    0.0094594954752162
  73    -0.0028712530742903
  74    -9.38750981022e-05
  75    5.7162938327364e-05
  76    -3.1228566570427e-18
  77    0.00035825083975324
  78    -0.00022340842379537
  79    2.3129365880566e-18
  80    -5.4872385034049e-05
  81    8.8809392169375e-19
  82    2.1260780852926e-19
  83    5.1460092751645e-05
  84    -8.3946131756259e-05
  85    -0.00022099207790353
  86    0.0011171000438197
  87    -0.00022346457612898
  88    0.0011335874082498
  89    -0.00022346457613338
  90     0.001133587408292
  91    -0.00022099207791887
  92    0.0011171000438658
  93    -0.00022346457613014
  94    0.0011335874082749
  95    -0.00022346457612643
  96    0.0011335874082399
 Sym= A
 Ene=     -11.2310102
 Spin= Alpha
 Occup=    2.00000
   1    -7.100497499874e-11
   2    -1.7286780749207e-12
   3    7.2596908323349e-13
   4    -0.00035778007573026
   5    1.6457630483247e-14
   6    7.1830037294459e-17
   7    0.0013846895459598
   8    -3.868053709656e-14
   9    4.4795294151573e-17
  10    1.1488532018322e-14
  11    3.9332026968087e-17
  12    1.4347401345884e-16
  13    1.3392065234541e-15
  14    0.00025241451314596
  15      0.49799276059448
  16     0.012161233519846
  17    -0.0052683150041502
  18    -0.00020080727337051
  19    9.0725864998362e-05
  20    -5.2343872078389e-17
  21    0.00062958129154402
  22    -0.00043624650362036
  23    -2.1087152856292e-17
  24    -8.6979525195252e-05
  25    1.1291261028289e-16
  26    -2.5360733164297e-18
  27    0.00010916751327984
  28    -6.3158515051253e-05
  29      0.49799276067475
  30     0.012161233521822
  31    -0.0052683150051092
  32    -0.00020080727335343
  33    -9.0725864920195e-05
  34    1.2976817751527e-16
  35    0.00062958129146766
  36    0.00043624650332095
  37    -1.4576952968774e-18
  38    -8.6979525217825e-05
  39    4.2120883179083e-19
  40    2.7558476775778e-19
  41    0.00010916751322924
  42    6.3158515028547e-05
  43    6.5071365704742e-11
  44    1.590227049747e-12
  45    -6.77800330766e-13
  46    -0.00035778007573496
  47    1.766639773699e-14
  48    1.5996306673229e-18
  49    0.0013846895459845
  50    -4.3377986921415e-14
  51    -1.0595177965904e-18
  52    -1.0066449397881e-14
  53    -2.1054230896911e-19
  54    -3.6496084447669e-19
  55    -2.2539731003681e-16
  56    -0.00025241451315116
  57     -0.49799276060828
  58    -0.012161233520188
  59    0.0052683150043542
  60    -0.00020080727337197
  61    9.0725864994358e-05
  62    -1.6797588137177e-18
  63    0.00062958129155703
  64    -0.00043624650359705
  65    2.0541600181628e-18
  66    8.6979525203331e-05
  67    -3.6892904713739e-19
  68    7.0191373829357e-19
  69    -0.00010916751327605
  70    6.3158515052165e-05
  71     -0.49799276067076
  72    -0.012161233521705
  73    0.0052683150049651
  74    -0.00020080727334847
  75    -9.0725864924978e-05
  76    3.6509827476581e-18
  77    0.00062958129144311
  78    0.00043624650334754
  79    -3.299271462423e-18
  80    8.6979525210701e-05
  81    3.9685306133565e-19
  82    3.7491883681763e-19
  83    -0.00010916751323392
  84    -6.3158515024702e-05
  85    3.5085059461498e-14
  86    -1.4445805064726e-13
  87    -0.00023901420370869
  88    0.0010008385117986
  89    -0.0002390142037444
  90     0.001000838511959
  91    -3.1912892756606e-14
  92    1.2810211353019e-13
  93    0.00023901420371402
  94    -0.0010008385118286
  95    0.00023901420374498
  96    -0.0010008385119559
 Sym= A
 Ene=    -11.23098233
 Spin= Alpha
 Occup=    2.00000
   1      0.57032051146733
   2     0.013914710466604
   3    -0.0058946615725589
   4    -4.3611239091536e-14
   5    -0.00014489954785608
   6    -4.6874910429218e-17
   7    1.6630140639451e-13
   8    0.00030990550161874
   9    3.3775470551947e-17
  10    -9.5804543422397e-05
  11    -1.0548490300636e-17
  12    -1.1108569353848e-16
  13    -2.8553080917071e-06
  14    3.0783957357672e-14
  15      0.29217126900835
  16    0.0071486615595868
  17    -0.0032301088867313
  18    8.7840579162241e-05
  19    -0.00030719777870763
  20    3.5597785798188e-19
  21    -0.0003775632014143
  22    0.0011663022038851
  23    2.463108710193e-19
  24    -5.5039633128441e-05
  25    2.3834977810803e-19
  26    -6.123032493706e-20
  27    -0.00019087955127658
  28    0.00010701843256313
  29     -0.29217126885981
  30    -0.0071486615559722
  31    0.0032301088851391
  32    -8.7840579214027e-05
  33    -0.00030719777873531
  34    -1.1846458334684e-18
  35    0.00037756320159944
  36    0.0011663022040187
  37    1.2518131292503e-19
  38    5.5039633097588e-05
  39    -1.0484909679411e-19
  40    -3.1540263890617e-19
  41    0.00019087955130953
  42    0.00010701843258173
  43     -0.57032051146643
  44    -0.013914710466636
  45    0.0058946615728042
  46    -4.2626692292614e-14
  47    -0.00014489954787259
  48    1.2692096890983e-18
  49    1.6832791988266e-13
  50    0.00030990550171034
  51    1.0645223903421e-19
  52    9.5804543434667e-05
  53    3.5003698667929e-20
  54    1.0170403996296e-19
  55    2.8553080780263e-06
  56    -2.9919326514237e-14
  57      -0.2921712689789
  58    -0.0071486615588819
  59    0.0032301088864054
  60    8.7840579165578e-05
  61    -0.00030719777871302
  62    6.5774831845073e-19
  63    -0.00037756320144274
  64    0.0011663022039141
  65    8.5079346068512e-19
  66    5.503963311743e-05
  67    2.9224702097431e-19
  68    -1.1404064580262e-19
  69    0.00019087955128284
  70    -0.0001070184325668
  71      0.29217126888784
  72    0.0071486615566448
  73    -0.0032301088854595
  74    -8.784057921032e-05
  75    -0.00030719777872902
  76    6.6522841234119e-19
  77    0.00037756320156069
  78    0.0011663022039916
  79    -9.0623336358094e-19
  80    -5.5039633106532e-05
  81    -6.2892901641315e-19
  82    1.5653587208643e-19
  83    -0.00019087955130247
  84    -0.00010701843257857
  85    -0.00027429230505113
  86    0.0011582524308799
  87    -0.00013992899009456
  88    0.00057577350136738
  89    0.00013992899002399
  90    -0.00057577350105735
  91    0.00027429230504533
  92    -0.0011582524308572
  93    0.00013992899008144
  94    -0.00057577350129514
  95    -0.00013992899003711
  96    0.00057577350112282
 Sym= A
 Ene=    -11.22983829
 Spin= Alpha
 Occup=    2.00000
   1    -6.3085208453798e-11
   2    -1.6209225705681e-12
   3    1.2087689896629e-12
   4    0.00025657805437997
   5    3.4753767907832e-14
   6    -1.2762258713561e-16
   7    -0.0013871426522101
   8    -1.9942223462841e-13
   9    1.1883180644073e-16
  10    4.9912809736434e-14
  11    7.2559092532409e-18
  12    -3.9307241464425e-17
  13    -2.8428648324308e-14
  14    -0.00027686731044323
  15     -0.49815209295782
  16    -0.012832953177508
  17    0.0098125569105919
  18    0.0001808258161549
  19    0.00025270714755837
  20    -1.8497322894845e-17
  21    -0.0011228698941461
  22    -0.0014492275226068
  23    -4.8099227904663e-17
  24    0.00040560300130205
  25    5.6893387222013e-17
  26    -2.5412815583574e-17
  27    0.0002362486992059
  28    0.00013188425019916
  29      0.49815209301136
  30     0.012832953178905
  31    -0.0098125569117532
  32    -0.00018082581620879
  33    0.00025270714753552
  34    -7.0011837953589e-17
  35    0.0011228698944624
  36    -0.0014492275224931
  37    -1.810871538338e-18
  38    -0.00040560300135295
  39    -6.8907018713363e-19
  40    -9.8422510845096e-19
  41    -0.00023624869917638
  42    0.00013188425025157
  43    -6.8541112789302e-11
  44    -1.76343573111e-12
  45    1.3532504478876e-12
  46    -0.00025657805437355
  47    -3.8338543816937e-14
  48    1.257665785183e-18
  49    0.0013871426521836
  50    2.3754970891476e-13
  51    -3.2876219507182e-19
  52    5.5662974814663e-14
  53    -5.1478019680745e-19
  54    -2.1977432230613e-19
  55    -3.1329005091271e-14
  56    -0.00027686731043864
  57     -0.49815209294481
  58    -0.012832953177182
  59     0.009812556910363
  60    -0.00018082581614905
  61    -0.00025270714755898
  62    -7.8693802579674e-19
  63    0.0011228698941031
  64    0.0014492275225961
  65    5.4353012370563e-20
  66    0.00040560300129521
  67    -4.3111950188368e-19
  68    8.9344168613851e-19
  69    0.00023624869920676
  70    0.00013188425019541
  71      0.49815209301613
  72     0.012832953179013
  73    -0.0098125569117151
  74    0.00018082581620986
  75    -0.00025270714753263
  76    -2.9122109586948e-18
  77    -0.001122869894442
  78    0.0014492275224648
  79    5.0894592976185e-18
  80    -0.0004056030013492
  81    1.3184869379615e-18
  82    1.4819531405073e-18
  83    -0.00023624869917351
  84    0.00013188425025004
  85    1.6897015821586e-14
  86    -1.1450532846601e-13
  87    0.00013321738967955
  88    -0.00088243986544482
  89    -0.00013321738969133
  90    0.00088243986553458
  91    1.883648564947e-14
  92    -1.2145578380657e-13
  93    0.00013321738967451
  94    -0.0008824398654233
  95    -0.00013321738969455
  96    0.00088243986554931
 Sym= A
 Ene=    -11.22981007
 Spin= Alpha
 Occup=    2.00000
   1      0.57984754986141
   2     0.014925517084227
   3    -0.011363260428205
   4    2.8788024771461e-14
   5    -0.00032498740309325
   6    -4.5989050438073e-17
   7    -1.6215652827467e-13
   8    0.0019543141748493
   9    -1.6670406314332e-17
  10    -0.00046906639954772
  11    -2.0625638110688e-18
  12    2.7736228702663e-17
  13    0.00026683919025416
  14    -3.0566180442299e-14
  15     -0.28292015902398
  16    -0.0073009273600674
  17    0.0056330015932596
  18    0.00025364565322399
  19    -0.0001102058804316
  20    -7.4530585688135e-19
  21    -0.0014535721196691
  22    0.00054817714338123
  23    3.4840640835901e-19
  24    0.00023355297798524
  25    -1.0549602898526e-18
  26    -4.2570219482179e-19
  27    -0.00014000531139305
  28    0.00023706293662249
  29     -0.28292015894661
  30    -0.007300927358106
  31    0.0056330015922339
  32    0.00025364565319647
  33    0.00011020588046984
  34    -2.4931987721793e-18
  35    -0.0014535721197502
  36    -0.00054817714346373
  37    6.3629690517669e-19
  38    0.00023355297792129
  39    7.1000070071898e-20
  40    -3.4975566962253e-19
  41    -0.00014000531143329
  42    -0.00023706293660207
  43      0.57984754986937
  44     0.014925517084502
  45    -0.011363260429114
  46    -2.9219729707793e-14
  47    0.00032498740310636
  48    -1.2923249109737e-18
  49    1.6150962345149e-13
  50    -0.0019543141752408
  51    -4.9500144365062e-19
  52    -0.0004690663995701
  53    6.1077303642506e-20
  54    -1.5629460613174e-19
  55    0.0002668391902684
  56    -3.1164906815994e-14
  57     -0.28292015905933
  58    -0.0073009273610093
  59    0.0056330015944465
  60    -0.00025364565323753
  61    0.00011020588041315
  62    -1.2820226904021e-18
  63    0.0014535721200085
  64    -0.00054817714314715
  65    -8.6414807480161e-20
  66    0.00023355297801276
  67    1.0415745902765e-19
  68    -1.9065689707714e-19
  69    -0.00014000531137994
  70    0.00023706293663168
  71     -0.28292015891258
  72    -0.0073009273571965
  73    0.0056330015910563
  74    -0.0002536456531837
  75    -0.00011020588048826
  76    -3.1299360422697e-19
  77    0.0014535721194123
  78    0.00054817714369628
  79    5.6281362181566e-20
  80    0.00023355297789415
  81    -6.9328384315334e-19
  82    -3.7922550178856e-19
  83    -0.00014000531144684
  84    -0.00023706293659315
  85    -0.0001567305727415
  86    0.0010326585322411
  87    7.4352628292814e-05
  88    -0.00049664665231876
  89    7.4352628279107e-05
  90    -0.0004966466521176
  91    -0.00015673057274441
  92    0.0010326585321869
  93    7.4352628309515e-05
  94    -0.00049664665231756
  95    7.4352628263366e-05
  96    -0.00049664665212034
 Sym= A
 Ene=     -11.2292577
 Spin= Alpha
 Occup=    2.00000
   1      0.41343081094224
   2     0.011277193400269
   3    -0.016473032951429
   4    -7.4559364970968e-16
   5    -0.00028611682616167
   6    4.1692275955169e-17
   7    5.8055116865644e-15
   8    0.0058614427270678
   9    -1.0198990451591e-18
  10    -0.00042289715636549
  11    -1.3634729934698e-17
  12    -2.7272724044234e-17
  13    0.00023158177856343
  14    1.1624330806115e-15
  15     -0.40352183177164
  16    -0.011034925284621
  17       0.0163704044916
  18    0.00024751767907466
  19    0.00013891694881549
  20    7.8734076325917e-19
  21    -0.0050766876109553
  22    -0.0029165352209019
  23    -3.2834216487721e-19
  24    0.00042104684082402
  25    -6.7172279333141e-19
  26    5.6636501619691e-19
  27    0.00011381267436232
  28    0.00020191568021908
  29       0.4035218317557
  30     0.011034925284203
  31    -0.016370404491251
  32    -0.00024751767905729
  33    0.00013891694882282
  34    2.7575780664978e-18
  35    0.0050766876108607
  36    -0.0029165352209385
  37    -3.0200030878951e-19
  38    -0.00042104684080927
  39    -9.2941774382919e-21
  40    4.0262171655297e-19
  41    -0.00011381267437114
  42    0.00020191568020298
  43     -0.41343081090255
  44    -0.011277193399258
  45     0.016473032950701
  46    2.1545573135968e-15
  47    -0.0002861168261417
  48    9.0737330414832e-19
  49    -1.5790157647745e-14
  50    0.0058614427269519
  51    5.8830137035914e-19
  52    0.00042289715633478
  53    -4.5441459102066e-20
  54    1.4387066767757e-19
  55    -0.00023158177854706
  56    1.6428249167551e-15
  57      0.40352183176265
  58     0.011034925284381
  59    -0.016370404491385
  60    0.00024751767905964
  61    0.00013891694882497
  62    8.9260919862022e-19
  63    -0.0050766876108779
  64    -0.002916535220946
  65    -5.3960724950038e-19
  66    -0.00042104684081384
  67    -1.8517873300852e-19
  68    -6.2810931086168e-20
  69    -0.00011381267437373
  70    -0.00020191568020439
  71     -0.40352183177589
  72    -0.011034925284732
  73     0.016370404491692
  74    -0.0002475176790762
  75    0.00013891694881869
  76    2.9087759629373e-18
  77    0.0050766876109671
  78    -0.0029165352209178
  79    6.9155206676064e-20
  80    0.00042104684082845
  81    7.0915565184862e-19
  82    -1.2972237899479e-19
  83    0.00011381267436533
  84    -0.00020191568022042
  85    -0.00017719309569253
  86    -0.00015880832137111
  87    0.00017210695875012
  88    0.00017846202229915
  89    -0.00017210695874689
  90    -0.00017846202232569
  91    0.00017719309568086
  92    0.00015880832144534
  93    -0.00017210695874861
  94    -0.0001784620223111
  95    0.00017210695875116
  96    0.00017846202229184
 Sym= A
 Ene=     -1.14211693
 Spin= Alpha
 Occup=    2.00000
   1    -0.092803169393665
   2      0.17816628275641
   3      0.11344148753009
   4    8.851525600446e-16
   5     -0.05914885743653
   6    1.0054393160041e-16
   7    -1.3212783022788e-14
   8    -0.0064450104096477
   9    3.9521875865693e-16
  10    -0.010320492532467
  11    -2.2177381386466e-17
  12    -4.9050785034512e-17
  13    0.0017678522291192
  14    7.9980347078788e-16
  15    -0.092793521737408
  16      0.17815042474199
  17      0.11343758338092
  18    -0.051247157927052
  19    -0.029579674403277
  20    1.0390525099209e-17
  21    -0.0055762762432986
  22    -0.0032120315548412
  23    -6.6386677938183e-18
  24    -0.010318821801237
  25    -9.7959947967328e-18
  26    -1.1943166611112e-18
  27    -0.00088679658093153
  28    -0.0015324771326768
  29    -0.092793521737418
  30      0.17815042474196
  31       0.1134375833815
  32    -0.051247157927055
  33     0.029579674403269
  34    -1.2930859014461e-17
  35    -0.0055762762436798
  36    0.0032120315550461
  37    6.7683603808136e-18
  38    -0.010318821801245
  39    -3.8371881709586e-18
  40    6.111989037354e-20
  41    -0.00088679658092918
  42    0.0015324771326789
  43    -0.092803169393668
  44      0.17816628275648
  45      0.11344148752941
  46    3.1070529367071e-15
  47     0.059148857436535
  48    -2.1365401035785e-17
  49    2.3652270425689e-14
  50    0.0064450104091874
  51    -2.6854395054536e-17
  52    -0.010320492532457
  53    4.8150028969486e-19
  54    -2.7601323526085e-18
  55    0.0017678522291178
  56    1.6580644799903e-15
  57    -0.092793521737415
  58      0.17815042474194
  59       0.1134375833816
  60      0.05124715792705
  61     0.029579674403265
  62    -3.0287537441884e-17
  63    0.0055762762437268
  64    0.0032120315550653
  65    1.3709905796182e-17
  66    -0.010318821801249
  67    -1.1884557621213e-18
  68    -1.6887589861657e-18
  69    -0.00088679658093073
  70     -0.00153247713268
  71      -0.0927935217374
  72      0.17815042474199
  73      0.11343758338082
  74     0.051247157927052
  75    -0.029579674403272
  76    2.8609853157347e-17
  77    0.0055762762432749
  78    -0.0032120315548203
  79    6.6155115602852e-18
  80    -0.010318821801234
  81    1.1267886950091e-17
  82    4.6399332370953e-18
  83    -0.00088679658092874
  84    0.0015324771326769
  85     0.035539582285796
  86    0.0030529600016695
  87     0.035510827027712
  88    0.0030441681876812
  89     0.035510827027725
  90    0.0030441681878168
  91     0.035539582285792
  92    0.0030529600015404
  93     0.035510827027723
  94    0.0030441681878306
  95     0.035510827027709
  96     0.003044168187684
 Sym= A
 Ene=    -1.007784069
 Spin= Alpha
 Occup=    2.00000
   1     -0.12876990158962
   2      0.25048199530473
   3      0.19466868575241
   4    2.6466094224263e-15
   5    -0.026485755897021
   6    -7.9407910306541e-17
   7    -3.4768680573854e-14
   8     0.004289863266648
   9    -8.130701792427e-17
  10    -0.012682642904199
  11    -2.4918130395672e-17
  12    -1.1868474311056e-16
  13    0.0016274221150294
  14    9.6481133522773e-16
  15      -0.0643773010345
  16      0.12522873139255
  17     0.097296077619018
  18    -0.061205493828267
  19     0.079481043169526
  20    -2.8438857776412e-17
  21    -0.0054038208470191
  22     0.013709224815203
  23    -3.3054557408059e-18
  24    -0.0063409177317382
  25    1.6463718372144e-17
  26    -9.6840489513076e-20
  27    0.0087569906733693
  28    -0.0059985754371271
  29     0.064377301034489
  30     -0.12522873139254
  31    -0.097296077618936
  32     0.061205493828265
  33     0.079481043169539
  34    3.9667725254355e-17
  35    0.0054038208470292
  36     0.013709224815164
  37    -7.8684289450044e-18
  38    0.0063409177317364
  39    -3.0266403957884e-18
  40    -5.4177257962749e-18
  41    -0.0087569906733704
  42    -0.0059985754371275
  43      0.12876990158961
  44     -0.25048199530473
  45     -0.19466868575237
  46    -1.4426387133686e-15
  47    -0.026485755897013
  48    2.1463074082512e-17
  49    -4.5926907142605e-14
  50    0.0042898632666811
  51    3.4126080993869e-17
  52     0.012682642904197
  53    -1.174329844064e-19
  54    2.9374174590483e-18
  55    -0.0016274221150281
  56    -1.3735926329331e-15
  57     0.064377301034489
  58     -0.12522873139252
  59    -0.097296077619031
  60    -0.061205493828264
  61     0.079481043169532
  62    4.8611416342083e-17
  63    -0.0054038208470603
  64     0.013709224815205
  65    -1.5948748130667e-17
  66    0.0063409177317383
  67    6.2627063888403e-19
  68    5.0648186955486e-20
  69    -0.0087569906733708
  70    0.0059985754371285
  71    -0.064377301034497
  72      0.12522873139255
  73     0.097296077618935
  74     0.061205493828264
  75     0.079481043169527
  76    2.9545493411775e-17
  77     0.005403820847032
  78      0.01370922481516
  79    -3.0246440806226e-17
  80    -0.0063409177317373
  81    -1.6281022770573e-17
  82    -9.8086793504535e-18
  83    0.0087569906733685
  84    0.0059985754371258
  85     0.076807442136854
  86     0.014538861751918
  87     0.038383937394987
  88    0.0072562411330325
  89    -0.038383937394986
  90    -0.0072562411330567
  91    -0.076807442136856
  92    -0.014538861751907
  93    -0.038383937394982
  94    -0.0072562411330473
  95      0.03838393739499
  96    0.0072562411330625
 Sym= A
 Ene=     -1.00775053
 Spin= Alpha
 Occup=    2.00000
   1    -6.5445120830161e-15
   2    -8.6534094477205e-15
   3    1.8238256337168e-13
   4     -0.11483460553993
   5    2.5678445690953e-15
   6    5.0285516832461e-16
   7    -0.016814198777081
   8    -1.2079189848408e-13
   9    1.6310173549884e-16
  10    -3.7359938518283e-15
  11    1.5470049702669e-16
  12    5.4343506432707e-17
  13    1.0289078616887e-15
  14     0.012224779889189
  15      0.11151718761986
  16      -0.2169262740571
  17     -0.16859502760562
  18    -0.008788259457886
  19     0.061207997527827
  20    4.2898740065187e-17
  21    -0.0074270602738821
  22    0.0054085882453496
  23    -1.9782054968407e-16
  24     0.010981476785601
  25    5.9262282801745e-17
  26    -3.1269202386214e-17
  27    0.0060044662927915
  28    -0.0018325948352203
  29      0.11151718761987
  30      -0.2169262740571
  31     -0.16859502760552
  32    -0.0087882594578851
  33     -0.06120799752782
  34    -1.7826319172526e-16
  35    -0.0074270602740109
  36    -0.0054085882454254
  37    5.4202750336098e-18
  38     0.010981476785601
  39    1.3564618506151e-17
  40    5.7089619478812e-17
  41    0.0060044662927946
  42    0.0018325948352213
  43    -1.5950776670123e-15
  44    1.3347296635934e-14
  45    -1.0202923845976e-13
  46     -0.11483460553993
  47    -1.5049078307094e-15
  48    -2.9119672752061e-17
  49    -0.016814198777141
  50    -3.5745774248339e-14
  51    -1.1056249806352e-17
  52    3.1385151035534e-16
  53    -3.0932524816628e-18
  54    -4.4724177779634e-18
  55    -9.3773095399931e-17
  56    -0.012224779889188
  57     -0.11151718761987
  58      0.21692627405709
  59      0.16859502760572
  60    -0.0087882594578836
  61     0.061207997527824
  62    -1.8911519944923e-17
  63    -0.0074270602739029
  64    0.0054085882454727
  65    1.5844610447297e-17
  66    -0.010981476785604
  67    -1.0052244615542e-18
  68    -6.0730326680397e-19
  69    -0.0060044662927968
  70    0.0018325948352217
  71     -0.11151718761986
  72      0.21692627405712
  73      0.16859502760534
  74    -0.0087882594578801
  75    -0.061207997527828
  76     1.01116935586e-16
  77    -0.0074270602740659
  78    -0.0054085882452821
  79    -4.5359679868432e-18
  80    -0.010981476785596
  81    7.470390410418e-18
  82    9.648689599441e-18
  83    -0.0060044662927921
  84    -0.0018325948352218
  85    5.0499135797389e-15
  86    4.1008558022027e-14
  87    -0.066466849924622
  88    -0.012577240397228
  89     -0.06646684992462
  90    -0.012577240397213
  91    1.6837545772268e-15
  92    1.6160619776656e-15
  93     0.066466849924624
  94      0.01257724039724
  95     0.066466849924617
  96     0.012577240397178
 Sym= A
 Ene=   -0.8174646368
 Spin= Alpha
 Occup=    2.00000
   1    -4.6856574792138e-15
   2    -3.1966543172844e-14
   3    3.9018419270598e-13
   4     -0.20471492086962
   5    4.202792435196e-15
   6    7.5763097664808e-16
   7    -0.051906429734206
   8    -2.9477777752978e-13
   9    6.4305295383348e-16
  10    -6.3202275131904e-15
  11    1.3343130767647e-16
  12    -1.2821008605836e-16
  13    1.6950416764638e-15
  14     0.012487730889416
  15     0.087044766706506
  16     -0.17483146118129
  17     -0.14849652822147
  18    0.0023063039798292
  19     -0.11687755995662
  20    1.6624126359911e-16
  21    -0.029755354711738
  22    -0.047156004901993
  23    3.5672564861039e-16
  24    0.0073576428179562
  25    4.3898771918911e-17
  26    -9.9138100124585e-17
  27    -0.0079956703415649
  28    -0.0013733303566069
  29    -0.087044766706504
  30      0.17483146118129
  31      0.14849652822147
  32    -0.0023063039798347
  33     -0.11687755995662
  34    1.7122082399281e-17
  35     0.029755354711766
  36    -0.047156004902021
  37    8.2008714321986e-17
  38    -0.0073576428179558
  39    -4.5848336798934e-17
  40    -6.8471639713764e-17
  41    0.0079956703415648
  42    -0.0013733303566067
  43    6.7625823378118e-15
  44    8.2595711239908e-15
  45    -2.9264455041216e-13
  46      0.20471492086963
  47    8.5413687688912e-15
  48    -3.0896252933588e-16
  49     0.051906429734152
  50    -2.2906826734182e-13
  51    -4.2003547308012e-17
  52    4.7255993749337e-15
  53    -1.9978126242931e-17
  54    5.7666214308451e-18
  55    -2.1489667695818e-16
  56     0.012487730889414
  57     0.087044766706493
  58     -0.17483146118134
  59     -0.14849652822074
  60    -0.0023063039798423
  61      0.11687755995663
  62    1.6396826680173e-16
  63     0.029755354712133
  64      0.04715600490231
  65    -6.7232996840774e-18
  66    0.0073576428179452
  67    -2.2324577702078e-18
  68    2.2720944092086e-17
  69    -0.0079956703415687
  70    -0.0013733303566061
  71    -0.087044766706498
  72      0.17483146118137
  73      0.14849652822063
  74    0.0023063039798285
  75      0.11687755995661
  76    3.6262819991477e-16
  77    -0.029755354712178
  78      0.04715600490227
  79    1.4056441064601e-16
  80    -0.0073576428179436
  81    3.3636984651146e-17
  82    1.1249129582645e-17
  83    0.0079956703415656
  84    -0.0013733303566094
  85    6.4863490499995e-15
  86    9.5662128056437e-14
  87     -0.09803103798304
  88    -0.030330084097336
  89     0.098031037983035
  90     0.030330084097312
  91    -1.254882721408e-14
  92    -7.8941512750276e-14
  93    -0.098031037983022
  94    -0.030330084097186
  95     0.098031037983031
  96     0.030330084097202
 Sym= A
 Ene=   -0.8174627679
 Spin= Alpha
 Occup=    2.00000
   1     -0.10051744641527
   2      0.20188959698421
   3      0.17152172773157
   4    -2.5881138028569e-15
   5     0.065332052613834
   6    1.0571662214854e-16
   7     6.24907669897e-14
   8     0.056982397581059
   9    8.3585099801879e-17
  10    -0.0084970054876533
  11    4.4424324723089e-17
  12    -4.2386334699335e-18
  13    -0.0059981747867275
  14    -1.7371313656471e-15
  15     0.050262469291569
  16     -0.10095360865356
  17    -0.085755459121425
  18     -0.11677292204907
  19      0.13727636183347
  20    -7.1838269561764e-18
  21    -0.047097300299497
  22     0.024692156698043
  23    5.277720541585e-18
  24    0.0042455972530484
  25    2.106300223336e-17
  26    -6.805897268543e-17
  27    0.0078733054292239
  28    -0.0080003505056689
  29      0.05026246929158
  30      -0.1009536086535
  31    -0.085755459122213
  32     -0.11677292204908
  33     -0.13727636183347
  34    -2.936601592441e-17
  35    -0.047097300299089
  36    -0.024692156698369
  37    -1.3528079074876e-17
  38      0.00424559725306
  39    -2.9249499496832e-17
  40    -6.6125015478531e-17
  41     0.007873305429227
  42    0.0080003505056688
  43     -0.10051744641527
  44      0.20188959698415
  45      0.17152172773225
  46    8.4560147415257e-15
  47    -0.065332052613847
  48    -3.0315396578378e-17
  49    3.1554867821439e-14
  50    -0.056982397580591
  51    -3.3265246113908e-17
  52    -0.0084970054876625
  53    -7.6537415454362e-17
  54    2.1427618335382e-18
  55    -0.0059981747867272
  56    2.2717108929279e-15
  57     0.050262469291584
  58     -0.10095360865353
  59     -0.08575545912207
  60      0.11677292204908
  61     -0.13727636183346
  62    -2.516432144055e-17
  63      0.04709730029912
  64    -0.024692156698341
  65    -1.169689768726e-17
  66    0.0042455972530579
  67    -4.2679556331523e-17
  68    7.528679799821e-17
  69    0.0078733054292259
  70    -0.0080003505056698
  71     0.050262469291567
  72     -0.10095360865355
  73    -0.085755459121384
  74      0.11677292204908
  75      0.13727636183347
  76    4.2981940379483e-17
  77     0.047097300299496
  78     0.024692156698159
  79    2.5706066388769e-17
  80    0.0042455972530477
  81    4.848585856006e-17
  82    7.1776882397544e-17
  83    0.0078733054292268
  84    0.0080003505056713
  85      0.11329476775842
  86     0.035062952768297
  87     -0.05652994744241
  88    -0.017490392702767
  89    -0.056529947442419
  90    -0.017490392702917
  91      0.11329476775843
  92     0.035062952768432
  93    -0.056529947442428
  94    -0.017490392702918
  95    -0.056529947442411
  96    -0.017490392702805
 Sym= A
 Ene=    -0.702475567
 Spin= Alpha
 Occup=    2.00000
   1    0.0078891716643083
   2    -0.015438447919119
   3    -0.034204139332478
   4    3.0826447263768e-15
   5     -0.19378835729982
   6    5.9629959985158e-16
   7    -1.7926101309094e-14
   8    -0.071572877965653
   9    1.5514397462844e-16
  10    0.0022279064092911
  11    4.0812577059149e-18
  12    8.7417964913279e-17
  13    0.0031351148709667
  14    -1.3071192742339e-16
  15    0.0079803221718959
  16    -0.015618968409953
  17    -0.034437176542916
  18     -0.16789245141453
  19    -0.096796031189457
  20    -6.1251457424918e-17
  21    -0.062052156186053
  22    -0.035796559941169
  23    -1.613101505057e-16
  24    0.0022333817470099
  25    -4.6595616417374e-18
  26    5.4338359951259e-17
  27    -0.0015541391056691
  28    -0.0027217184363418
  29    0.0079803221718957
  30    -0.015618968409924
  31    -0.034437176543249
  32     -0.16789245141453
  33     0.096796031189457
  34    2.7949396742268e-17
  35    -0.062052156185867
  36     0.035796559941045
  37    -1.7422801853621e-17
  38    0.0022333817470145
  39    3.2371339161632e-18
  40    -1.4212760845985e-17
  41    -0.0015541391056665
  42    0.0027217184363413
  43    0.0078891716643057
  44    -0.015438447919152
  45    -0.034204139332115
  46    2.1957971284149e-16
  47      0.19378835729985
  48    -5.3572444005919e-17
  49    -3.6810927916037e-14
  50     0.071572877965914
  51    -3.6305797041152e-17
  52     0.002227906409286
  53    -1.127214502417e-18
  54    -1.9967279164298e-18
  55    0.0031351148709704
  56    -1.5592613116821e-15
  57    0.0079803221718956
  58    -0.015618968409915
  59    -0.034437176543323
  60      0.16789245141452
  61      0.09679603118945
  62    -2.4878272718078e-17
  63     0.062052156185838
  64     0.035796559941082
  65    -4.2667168566059e-17
  66    0.0022333817470158
  67    -2.7842603857454e-18
  68    -3.8421528933958e-18
  69    -0.0015541391056676
  70    -0.0027217184363403
  71    0.0079803221718969
  72    -0.015618968409948
  73    -0.034437176542974
  74      0.16789245141452
  75    -0.096796031189456
  76    7.9810408910962e-17
  77     0.062052156186082
  78    -0.035796559941199
  79    3.4718663001203e-17
  80    0.0022333817470104
  81    -3.6786820364284e-18
  82    -3.0989887485561e-18
  83    -0.0015541391056693
  84    0.0027217184363418
  85     -0.11126163796098
  86    -0.065592682079176
  87     -0.11132948784551
  88    -0.065620135941412
  89     -0.11132948784552
  90     -0.06562013594147
  91     -0.11126163796099
  92    -0.065592682079122
  93     -0.11132948784551
  94    -0.065620135941455
  95     -0.11132948784551
  96    -0.065620135941372
 Sym= A
 Ene=   -0.6396918621
 Spin= Alpha
 Occup=    2.00000
   1    -0.056346129939018
   2      0.11678150119884
   3      0.06108588997446
   4    6.3877797979086e-15
   5      0.13192184256601
   6    -6.1313524253771e-16
   7    5.2279316724916e-14
   8      0.12883857014996
   9    -5.4662117465225e-16
  10    -0.0042397389100248
  11    -1.7613282516465e-17
  12    -7.238136970119e-17
  13     -0.01834050058867
  14    -3.639353388151e-15
  15     0.056374620234825
  16     -0.11683525257803
  17    -0.061112711810505
  18     -0.11383094399952
  19    -0.065831732166897
  20    -2.0840452752793e-16
  21     -0.11143004339407
  22    -0.064391331767471
  23    -1.6934986976333e-16
  24    0.0042369856532801
  25    -2.2378724164432e-17
  26    7.0832002867602e-18
  27    -0.0091595415924718
  28     -0.01586108751724
  29    -0.056374620234826
  30      0.11683525257802
  31     0.061112711810529
  32      0.11383094399952
  33    -0.065831732166916
  34    -1.90784397601e-16
  35      0.11143004339405
  36    -0.064391331767466
  37    -6.0192303077133e-17
  38    -0.0042369856532808
  39    7.1313634701269e-18
  40    -7.8648360755738e-18
  41    0.0091595415924737
  42     -0.01586108751724
  43     0.056346129939015
  44     -0.11678150119882
  45    -0.061085889974545
  46    -6.8157542865998e-15
  47      0.13192184256601
  48    -7.2386686325423e-17
  49    -1.3676860598266e-14
  50      0.12883857014989
  51    -3.549711451828e-17
  52     0.004239738910027
  53    -2.4124193818547e-18
  54    -8.8478636767111e-18
  55     0.018340500588669
  56    -1.4599501579326e-15
  57    -0.056374620234823
  58      0.11683525257806
  59     0.061112711810356
  60     -0.11383094399952
  61    -0.065831732166926
  62    -1.2596726464565e-16
  63      -0.1114300433941
  64    -0.064391331767547
  65    -4.7289194671042e-17
  66    -0.004236985653277
  67    -5.0248745778002e-18
  68    -1.7810425702296e-17
  69    0.0091595415924771
  70     0.015861087517239
  71     0.056374620234823
  72     -0.11683525257807
  73    -0.061112711810274
  74      0.11383094399951
  75    -0.065831732166897
  76    -3.355777688221e-16
  77      0.11143004339415
  78     -0.06439133176752
  79    -1.4152075495765e-16
  80    0.0042369856532751
  81    -1.8143251739432e-17
  82    -1.35631015451e-17
  83    -0.0091595415924734
  84     0.015861087517241
  85      0.13641975865857
  86     0.066123960206461
  87      -0.1361766647313
  88    -0.065987821087164
  89       0.1361766647313
  90     0.065987821087172
  91     -0.13641975865856
  92    -0.066123960206491
  93      0.13617666473131
  94     0.065987821087159
  95      -0.1361766647313
  96    -0.065987821087138
 Sym= A
 Ene=   -0.6104168143
 Spin= Alpha
 Occup=    2.00000
   1    -3.0486063125408e-15
   2    -2.1849067622585e-14
   3    2.7416851564501e-13
   4      0.27172851706831
   5    9.4276339950982e-15
   6    -3.1954481578857e-16
   7     0.096247003398735
   8    -1.8213675590875e-13
   9    -3.1870877362348e-16
  10    -4.3254053007622e-15
  11    1.1082043947637e-16
  12    1.7500396377296e-17
  13    1.120524004055e-15
  14    -0.0096938152664669
  15    3.8388333436456e-05
  16    -7.8951734649187e-05
  17    -6.94957106409e-05
  18     -0.13561319052878
  19       0.2357494521371
  20    1.2456101280283e-16
  21    -0.047992910496654
  22     0.083489854067598
  23    3.5849735435676e-16
  24    -4.8917010326443e-06
  25    -1.1421853811137e-16
  26    -2.5117047807172e-17
  27    0.0084433055724732
  28    -0.0048460323662106
  29    3.8388333433908e-05
  30    -7.8951734689803e-05
  31    -6.9495710137006e-05
  32      -0.1356131905288
  33      -0.2357494521371
  34    -2.5812636302639e-16
  35    -0.047992910497013
  36    -0.083489854067471
  37    -5.7617109919152e-16
  38    -4.8917010403117e-06
  39    -2.2340962809763e-17
  40    -2.6301387045595e-17
  41    0.0084433055724735
  42    0.0048460323662156
  43    3.8490120130872e-15
  44    1.7498369752372e-14
  45    -2.5085384192739e-13
  46      0.27172851706832
  47    1.3121169356401e-14
  48    -5.2116021014069e-16
  49     0.096247003398685
  50    -1.7086996048018e-13
  51    3.5416209668795e-17
  52    4.4321966544611e-15
  53    1.8982245336901e-17
  54    -1.4467559290637e-17
  55    -6.6422609241618e-16
  56    0.0096938152664654
  57    -3.8388333440591e-05
  58    7.8951734665253e-05
  59    6.949571060825e-05
  60      -0.1356131905288
  61      0.23574945213709
  62    -4.075382338612e-16
  63    -0.047992910496708
  64      0.08348985406763
  65    -2.5806218001897e-16
  66    4.8917010334789e-06
  67    4.2038715874967e-17
  68    -1.8099225837152e-16
  69    -0.008443305572473
  70    0.0048460323662135
  71    -3.8388333430909e-05
  72    7.895173468442e-05
  73    6.9495710134041e-05
  74     -0.13561319052879
  75      -0.2357494521371
  76    -5.4474894699207e-16
  77     -0.04799291049697
  78    -0.083489854067447
  79    -3.0534197812655e-16
  80    4.8917010400869e-06
  81    -2.4101315862939e-17
  82    -1.2814931083564e-16
  83    -0.0084433055724736
  84    -0.0048460323662124
  85    7.1152578957487e-15
  86    5.9566358148491e-14
  87    0.00026725924834954
  88    0.0001869861327442
  89    0.00026725924834159
  90    0.00018698613283916
  91    -1.1453960453864e-14
  92    -5.9122050555685e-14
  93    -0.00026725924833195
  94    -0.00018698613273354
  95    -0.00026725924835192
  96    -0.00018698613283511
 Sym= A
 Ene=   -0.5818968589
 Spin= Alpha
 Occup=    2.00000
   1     0.019884836632886
   2     -0.04224944240531
   3    -0.027766908167405
   4    1.1006242013364e-13
   5       0.2935828013131
   6    -8.1342408901555e-16
   7    7.5023707372755e-14
   8      0.12909211957423
   9    -5.5187256932881e-16
  10    -0.0025341457757121
  11    5.8018578630296e-17
  12    -2.6657620495571e-17
  13    -0.014447695222257
  14    -2.0293585946017e-14
  15    0.0098701458868472
  16    -0.020976096992186
  17    -0.013847806152188
  18      0.16436244120883
  19    0.0092330787055264
  20    -3.3238218477443e-16
  21     0.069153973796228
  22    0.0098125473833039
  23    -1.0931280230978e-16
  24    -0.001271788252636
  25    2.3267637930821e-17
  26    1.6323329728254e-17
  27    -0.0070095641436059
  28     0.012414112367508
  29    -0.0098701458868922
  30     0.020976096992299
  31      0.01384780615215
  32     -0.16436244120937
  33    0.0092330787059661
  34    -1.8604291525707e-16
  35    -0.069153973796431
  36    0.0098125473835126
  37    -1.0691925028448e-16
  38    0.0012717882526437
  39    1.3529286516635e-17
  40    3.1740427469443e-18
  41    0.0070095641435718
  42     0.012414112367526
  43    -0.019884836632891
  44     0.042249442405296
  45     0.027766908167526
  46    1.1460304372623e-13
  47      0.29358280131311
  48    -2.2514307434997e-16
  49    4.9877049137114e-14
  50      0.12909211957429
  51    -9.7916402924194e-17
  52    0.0025341457757092
  53    3.5692557549768e-18
  54    -1.4746817027757e-17
  55      0.01444769522226
  56    1.9088060937535e-14
  57    -0.0098701458868439
  58     0.020976096992202
  59     0.013847806152068
  60      0.16436244120881
  61    0.0092330787054968
  62    -3.723749748953e-16
  63     0.069153973796169
  64    0.0098125473832843
  65    -2.7619978132594e-16
  66    0.0012717882526381
  67    -1.3298681878357e-17
  68    -2.0491536598415e-17
  69    0.0070095641436074
  70    -0.012414112367506
  71    0.0098701458868933
  72    -0.020976096992304
  73    -0.013847806152138
  74     -0.16436244120937
  75     0.009233078705995
  76    -5.9069876928831e-16
  77    -0.069153973796447
  78    0.0098125473835132
  79    -4.0862107413241e-16
  80    -0.0012717882526438
  81    -3.0095133249291e-17
  82    7.4891885085948e-18
  83    -0.0070095641435714
  84    -0.012414112367527
  85      0.16475689418029
  86      0.12640560078985
  87     0.082554709796664
  88     0.063294492338625
  89    -0.082554709797045
  90     -0.06329449233891
  91      -0.1647568941803
  92     -0.12640560078986
  93    -0.082554709796645
  94    -0.063294492338608
  95     0.082554709797055
  96     0.063294492338907
 Sym= A
 Ene=   -0.5818569195
 Spin= Alpha
 Occup=    2.00000
   1    2.5065519683621e-14
   2    -7.2091117993605e-14
   3    1.202598374324e-13
   4     -0.08615209456008
   5    4.0649935057776e-13
   6    -9.3458029155726e-17
   7    -0.030320200136379
   8    6.6946285376787e-14
   9    2.1182855546036e-16
  10    -6.3834464340906e-15
  11    -4.751182994309e-17
  12    -1.7913160314195e-16
  13    -1.8741085072715e-14
  14     0.014184487949071
  15       0.0171604733164
  16    -0.036471183411735
  17    -0.023928511126781
  18      0.19907414519553
  19      0.16383637909591
  20    -1.2836649743446e-16
  21     0.089505284103471
  22     0.068874980764381
  23    -6.2086788349108e-16
  24    -0.0021973958491693
  25    -2.3839185501977e-16
  26    4.2933381889602e-17
  27     0.012374234835304
  28    0.0073178383761425
  29     0.017160473316368
  30    -0.036471183411692
  31    -0.023928511126491
  32      0.19907414519508
  33     -0.16383637909589
  34    -7.9600603158095e-16
  35     0.089505284103182
  36    -0.068874980764288
  37    -6.4963435946606e-16
  38    -0.0021973958491696
  39    8.7930700444997e-17
  40    2.673282138737e-17
  41     0.012374234835322
  42    -0.0073178383761091
  43    -2.7231489233079e-14
  44    6.0044208251563e-14
  45    -2.3863444333635e-14
  46    -0.086152094560085
  47    4.1674558418958e-13
  48    -4.8582436320955e-16
  49    -0.030320200136385
  50    1.1488859214934e-13
  51    -3.3233459837478e-17
  52    3.7906592685161e-15
  53    -7.6275418510593e-17
  54    -6.5288143151484e-17
  55    2.0878188969564e-14
  56    -0.014184487949071
  57    -0.017160473316399
  58     0.036471183411738
  59     0.023928511126753
  60      0.19907414519554
  61      0.16383637909591
  62    -8.2210547624077e-16
  63     0.089505284103476
  64      0.06887498076442
  65    -8.6721208841059e-16
  66    0.0021973958491702
  67    -5.6987533641226e-17
  68    -1.4568196696243e-16
  69    -0.012374234835305
  70    -0.0073178383761424
  71    -0.017160473316367
  72     0.036471183411712
  73     0.023928511126391
  74      0.19907414519507
  75     -0.16383637909588
  76    -5.62565639725e-16
  77     0.089505284103133
  78    -0.068874980764267
  79    -3.3191951198557e-16
  80    0.0021973958491722
  81    5.2239721384449e-17
  82    -6.1278105496782e-17
  83    -0.012374234835323
  84    0.0073178383761066
  85    2.2961387400039e-13
  86    2.0961786271483e-13
  87      0.14279241592205
  88      0.10954568917563
  89      0.14279241592182
  90      0.10954568917547
  91    -2.3647810339704e-13
  92    -2.0552204071518e-13
  93     -0.14279241592205
  94     -0.10954568917561
  95     -0.14279241592182
  96     -0.10954568917547
 Sym= A
 Ene=   -0.4941826336
 Spin= Alpha
 Occup=    2.00000
   1    -8.8128924294534e-17
   2    3.398515521127e-16
   3    -1.3137663214468e-15
   4    -1.2024547762788e-14
   5    -3.1911153534849e-15
   6      0.20965339708874
   7    -5.6861114676867e-15
   8    -6.9538236782525e-16
   9      0.13715462088098
  10    5.6044336135214e-17
  11    6.7316157578095e-16
  12    -0.011872634201566
  13    3.7811747519149e-16
  14    6.5040112279419e-16
  15    2.2334579010898e-16
  16    -6.2875053294409e-16
  17    1.845860058227e-15
  18    1.1477702895903e-14
  19    4.424930825101e-15
  20      0.20966105367615
  21    5.3775385621957e-15
  22    2.6090966491424e-15
  23      0.13714741806955
  24    -2.4612132577432e-16
  25    -0.010285635318707
  26    -0.0059383610171755
  27    6.2168157214486e-16
  28    1.3030015168058e-15
  29    -9.1593029334632e-17
  30    4.5693152762735e-16
  31    -2.434050308323e-15
  32    -1.1107796526725e-14
  33    -5.7640799057208e-15
  34      0.20966105367616
  35    -4.5251782717257e-15
  36    -1.9511536046526e-15
  37      0.13714741806956
  38    1.1504851515735e-16
  39    -0.010285635318708
  40    0.0059383610171745
  41    1.677772023632e-16
  42    9.0309755328878e-16
  43    -4.5990771287959e-17
  44    7.1158672011637e-17
  45    9.5980504273325e-16
  46    1.2242919389407e-14
  47    4.6915751832668e-15
  48      0.20965339708876
  49    6.7131010851327e-15
  50    3.4642078471439e-15
  51      0.13715462088098
  52    3.6160886724519e-17
  53    -3.9706486561581e-16
  54     0.011872634201566
  55    5.6199668328934e-16
  56    6.7119169204372e-16
  57    2.2516917787251e-17
  58    -2.7586122469396e-16
  59    3.6578851580011e-16
  60    -1.0629880454935e-14
  61    -3.4282765868537e-15
  62      0.20966105367615
  63    -5.6717731324096e-15
  64    -2.8516783858218e-15
  65      0.13714741806956
  66    -7.5785014696184e-17
  67     0.010285635318708
  68    0.0059383610171744
  69    5.1527759071252e-16
  70    1.2914102274441e-15
  71    7.8287195187839e-17
  72    1.374402185245e-16
  73    -1.0892419046551e-16
  74    1.1525075789975e-14
  75    4.1294680543375e-15
  76      0.20966105367615
  77     6.78555333217e-15
  78    6.364969602248e-16
  79      0.13714741806955
  80    -4.5364157095865e-18
  81     0.010285635318707
  82    -0.005938361017175
  83    -7.3365468801694e-17
  84    1.2522539471316e-15
  85    -2.5164710554195e-15
  86    -2.6006365172982e-15
  87    8.9943998115087e-15
  88    7.5590470687555e-15
  89    -5.0584696044195e-15
  90    -4.9343396074554e-15
  91    -3.5327183615311e-15
  92    -2.5313522750974e-15
  93    8.2007716610562e-15
  94    7.097383720466e-15
  95    -5.8147561612517e-15
  96    -3.9386285843849e-15
 Sym= A
 Ene=   -0.4889147441
 Spin= Alpha
 Occup=    2.00000
   1    -0.0041995515466753
   2     0.012463469329942
   3    -0.0096780681563211
   4    -2.0496305930289e-12
   5     -0.22286246607346
   6    -3.3553452648641e-15
   7    -8.3923187417461e-13
   8     -0.12858863404945
   9    -2.7827509364129e-15
  10    0.0030688407284673
  11    1.2687062216994e-16
  12    1.4162847988342e-16
  13      0.02639501650377
  14    1.2014077320704e-13
  15     0.002102636572577
  16    -0.0062462790233359
  17    0.0048586704286259
  18     -0.01445777326191
  19       0.2478912362409
  20    -2.9779665005556e-15
  21    0.0067556951969826
  22      0.11689586474309
  23    -1.8803765832622e-15
  24    -0.0015354597820789
  25    2.7904201920144e-16
  26    4.4809266016305e-17
  27     0.018026732583676
  28     0.004834716297126
  29    0.0021026365725262
  30    -0.0062462790231572
  31    0.0048586704281818
  32    -0.014457773265597
  33     -0.24789123624113
  34    -3.5982262326569e-15
  35    0.0067556951951599
  36     -0.11689586474316
  37    -2.3382061947907e-15
  38    -0.0015354597820324
  39     2.02352890444e-16
  40    -6.9495885478606e-17
  41     0.018026732583599
  42    -0.0048347162967493
  43    -0.0041995515466815
  44     0.012463469329905
  45    -0.0096780681559018
  46    2.0492496280645e-12
  47      0.22286246607342
  48    -3.9099669257488e-15
  49    8.5396170734127e-13
  50      0.12858863404965
  51    -2.5622170165399e-15
  52    0.0030688407284603
  53    1.981519628045e-17
  54    -2.2152937930575e-16
  55      0.02639501650377
  56    1.2077049072635e-13
  57    0.0021026365725854
  58    -0.0062462790233197
  59    0.0048586704282828
  60     0.014457773261895
  61     -0.24789123624091
  62    -4.1611459389443e-15
  63    -0.0067556951972083
  64     -0.11689586474321
  65    -2.7346946884547e-15
  66    -0.0015354597820739
  67    -1.9866746064534e-16
  68    -1.0959509692436e-16
  69     0.018026732583675
  70    0.0048347162971281
  71    0.0021026365725186
  72    -0.0062462790231807
  73    0.0048586704285753
  74     0.014457773265609
  75      0.24789123624114
  76    -4.0867048052994e-15
  77    -0.0067556951949563
  78      0.11689586474308
  79    -2.8332721170707e-15
  80    -0.0015354597820386
  81    -1.7947588924402e-16
  82    1.332395841339e-16
  83       0.0180267325836
  84    -0.0048347162967476
  85     -0.16275928716969
  86     -0.14269504969191
  87      0.08140458793225
  88     0.071380848925244
  89     0.081404587929991
  90     0.071380848923189
  91     -0.16275928716966
  92     -0.14269504969186
  93     0.081404587932252
  94     0.071380848925168
  95     0.081404587929997
  96     0.071380848923229
 Sym= A
 Ene=   -0.4888043751
 Spin= Alpha
 Occup=    2.00000
   1    -3.225511163703e-14
   2    1.011911699464e-13
   3    -1.4638913797267e-13
   4      0.25622257994217
   5    -1.7775697570804e-12
   6    9.5140717147055e-15
   7       0.1129984672793
   8    -1.0149449208297e-12
   9    5.7940728732956e-15
  10    2.5461421167888e-14
  11    -3.3866766260732e-16
  12    -4.4341957735631e-16
  13    2.1077513649367e-13
  14    -0.015237350732717
  15    -0.0036408616949584
  16      0.01081399685207
  17    -0.0083678203521834
  18     -0.23119341155327
  19      0.01442415574192
  20    1.0157151201546e-14
  21     -0.12474754980148
  22    -0.0067882396032716
  23    6.3998382277989e-15
  24    0.0026576010034523
  25    -7.3981469272994e-16
  26    -2.4099389594812e-16
  27    -0.0048203910304116
  28    -0.023610745714871
  29    0.0036408616949907
  30    -0.010813996852167
  31    0.0083678203522449
  32      0.23119341155302
  33     0.014424155737948
  34    1.0596594432108e-14
  35      0.12474754980163
  36    -0.0067882396051538
  37    6.8546820427852e-15
  38    -0.0026576010034759
  39    -9.0896030373311e-17
  40    2.7097680418709e-16
  41    0.0048203910306988
  42    -0.023610745714951
  43    -3.7093105569795e-14
  44    8.5873994624173e-14
  45    6.9919069964909e-14
  46     -0.25622257994215
  47    1.7883592542827e-12
  48    1.0811963807132e-14
  49     -0.11299846727928
  50    1.0857262446274e-12
  51    7.3331928499316e-15
  52    2.1076317695668e-14
  53    3.0000804273688e-16
  54    8.9773215824276e-16
  55    2.1264612266858e-13
  56    -0.015237350732713
  57    -0.003640861694954
  58     0.010813996852079
  59    -0.0083678203523181
  60      0.23119341155325
  61     -0.01442415574191
  62    1.023706845284e-14
  63      0.12474754980141
  64    0.0067882396032867
  65    6.5562993019085e-15
  66    0.0026576010034548
  67    4.4107072660256e-16
  68    -1.0307352827974e-16
  69    -0.0048203910304126
  70    -0.023610745714871
  71    0.0036408616949893
  72    -0.010813996852186
  73    0.0083678203523817
  74     -0.23119341155304
  75    -0.014424155737957
  76    9.6481942436291e-15
  77     -0.12474754980155
  78    0.0067882396051565
  79    6.4089274807389e-15
  80    -0.0026576010034791
  81    5.3703329952109e-16
  82    -5.9108795977715e-16
  83    0.0048203910307003
  84    -0.023610745714949
  85    -1.3005417804032e-12
  86    -1.1374853633736e-12
  87     -0.14095583415748
  88     -0.12363329048084
  89      0.14095583415878
  90      0.12363329048194
  91    -1.3044886561442e-12
  92    -1.1405513150309e-12
  93     -0.14095583415748
  94     -0.12363329048082
  95      0.14095583415879
  96      0.12363329048195
 Sym= A
 Ene=    -0.329153374
 Spin= Alpha
 Occup=    2.00000
   1    4.4789584704701e-17
   2    2.123236060545e-16
   3    -5.5227840694509e-16
   4    2.4414761055187e-16
   5    -7.5264810327731e-17
   6    2.9876527941214e-11
   7    1.3075409998149e-15
   8    -5.2684657469921e-16
   9    2.546970095313e-11
  10    9.2725160320252e-17
  11    -0.021694522666328
  12    -8.8617218629963e-13
  13    1.7590162617287e-16
  14    8.6680174900374e-17
  15    -8.3437934423724e-17
  16    1.6323346963198e-16
  17    -1.5372459260587e-15
  18    -5.0888557708631e-16
  19    8.8390554754931e-16
  20     -0.27187216369146
  21    8.5870525807154e-16
  22    -3.9941401652018e-16
  23     -0.23177208553078
  24    8.1841372724374e-17
  25    0.0015645116913849
  26     0.013427981252597
  27    2.1270312878248e-16
  28    2.0688680248853e-16
  29    -6.6379620983362e-17
  30    -2.8385571690355e-16
  31    1.8404370637284e-15
  32    3.5546048845643e-16
  33    -1.0001828107702e-15
  34     -0.27187216372134
  35    -1.424514512593e-15
  36    4.4809762034014e-16
  37     -0.23177208555625
  38    -1.6078877259196e-16
  39    0.0015645116939411
  40    -0.013427981249943
  41    1.1315988568788e-16
  42    1.6304316629405e-17
  43    -2.3784212242919e-17
  44    -1.0619748167183e-16
  45    -3.7433542323269e-16
  46    -7.565675332908e-17
  47    4.7399087234447e-16
  48    -2.9870306932991e-11
  49    -1.0903829294444e-15
  50    -1.0855280258091e-15
  51    -2.5465383115654e-11
  52    2.9739293356605e-17
  53    -0.021694522666328
  54    -8.8586513278528e-13
  55    7.0173165145105e-17
  56    -1.6513036813373e-16
  57    3.2623270280653e-17
  58    2.1858436685075e-16
  59    -4.0415437715312e-16
  60    2.1715388607068e-16
  61    9.8836326789704e-17
  62      0.27187216369147
  63    4.2455108882069e-16
  64    3.8159587053583e-16
  65      0.23177208553078
  66    1.6328018484694e-16
  67    0.0015645116913851
  68     0.013427981252597
  69    -4.8876789344252e-17
  70    3.2860920086907e-17
  71    -7.9296658740408e-17
  72    -3.5016590601661e-16
  73    1.2087618740707e-15
  74    -3.0335938727212e-16
  75    2.9754059428861e-17
  76      0.27187216372134
  77    -4.137466469314e-17
  78    1.5473783545776e-15
  79      0.23177208555625
  80    -7.3702012678381e-17
  81    0.0015645116939407
  82    -0.013427981249943
  83    -1.1188270329536e-17
  84    1.7444870760061e-16
  85    1.1951062446081e-17
  86    6.1481584103738e-18
  87    2.5059470089194e-16
  88    1.4471152868158e-16
  89    8.1248416394639e-17
  90    5.4302732725058e-16
  91    -3.8997349804688e-16
  92    -1.1092657756279e-15
  93    -2.8812445893904e-17
  94    7.1078229972095e-16
  95    3.6289611967528e-17
  96    -3.2550649457727e-16
 Sym= A
 Ene=   -0.3291436574
 Spin= Alpha
 Occup=    2.00000
   1    1.6832281555057e-17
   2    -1.8581867260501e-16
   3    1.1675977295477e-16
   4    -8.7678164527265e-16
   5    -5.7377495954443e-16
   6     -0.31392470292743
   7    -2.8152277400902e-16
   8    7.3222248385252e-17
   9     -0.26764147824386
  10    8.0615962090821e-17
  11    -2.0645997380312e-12
  12    0.0093098182140541
  13    1.9595018084971e-16
  14    1.0368868645488e-16
  15    1.9842159529514e-16
  16    -1.2304574104768e-16
  17    2.4448327654567e-16
  18    4.447187744069e-16
  19    -6.4144037261221e-17
  20     -0.15696241670025
  21    -1.43601473296e-16
  22    -2.4880468934318e-16
  23     -0.13381635556104
  24    2.2610155420467e-16
  25     0.013428235812631
  26    -0.013942983752146
  27    5.4260958789878e-17
  28    -1.2685101745616e-17
  29    7.0051983110588e-17
  30    3.3384638852436e-16
  31    -2.4606453427581e-15
  32    -3.3480909395528e-16
  33    -1.7675966859974e-16
  34      0.15696241664849
  35    1.0877041006538e-15
  36    -4.8604395354516e-16
  37      0.13381635551691
  38    -1.2263893842087e-17
  39    -0.013428235812333
  40    -0.013942983754703
  41    -7.3013934118399e-17
  42    3.3966164273653e-16
  43    -5.9280230599906e-17
  44    7.8486439301046e-17
  45    6.1919043971644e-16
  46    4.6550776170788e-16
  47    -1.8675431383189e-16
  48      0.31392470292744
  49    1.6447163313964e-15
  50    1.1000436797905e-15
  51      0.26764147824385
  52    6.8319454817547e-18
  53    -2.0651343660678e-12
  54    0.0093098182140531
  55    1.9209932393942e-16
  56    -2.25552873252e-16
  57    4.4600028519287e-17
  58    -2.4137381450865e-16
  59    -6.3956183296728e-16
  60    -2.2155210169673e-16
  61    9.7220265292067e-17
  62      0.15696241670023
  63    1.0975407818298e-16
  64    -1.4738869084545e-15
  65      0.13381635556102
  66    6.6253655733915e-17
  67     0.013428235812631
  68    -0.013942983752146
  69    -1.4457365738346e-16
  70    3.0017225155231e-16
  71    -3.0902097007365e-16
  72    5.1687777430939e-16
  73    1.6129447973447e-15
  74    7.2949946782612e-16
  75    1.2784091178854e-16
  76      -0.1569624166485
  77    4.1728924585048e-16
  78    -1.0862781111329e-15
  79     -0.13381635551691
  80    -9.9407025531276e-17
  81    -0.013428235812333
  82    -0.013942983754702
  83    -4.6092558346329e-17
  84    2.1138788630138e-16
  85    -2.7008208636752e-16
  86    -4.3706769124365e-16
  87    3.6658472886046e-16
  88    6.2046599403062e-16
  89    -3.4134345557312e-16
  90    -7.8901736209421e-17
  91    1.1447961364556e-16
  92    6.6228043244915e-16
  93    -1.9432692187409e-17
  94    -2.5578448784087e-16
  95    -2.9895979308259e-16
  96    -1.3020259783091e-16
 Sym= A
 Ene=    0.1470044017
 Spin= Alpha
 Occup=    0.00000
   1    6.0628958642645e-17
   2    4.1787868887695e-16
   3    -2.8235073316092e-15
   4    5.0518311570712e-16
   5    -2.1713364769442e-16
   6      0.30992038011237
   7    6.0627114632046e-16
   8    2.9354125735273e-15
   9      0.56856740645078
  10    -2.0892417450719e-16
  11    5.5756661473073e-12
  12    0.0098012203783721
  13    -2.3957901294074e-17
  14    8.5504905666921e-17
  15    -1.8154957996907e-16
  16    4.2780889715705e-16
  17    2.2117596897433e-15
  18    -2.0451476145005e-16
  19    4.5081429350008e-16
  20     -0.15496550233827
  21    5.5533674486206e-16
  22    -1.3700424705052e-15
  23      -0.2842783433085
  24    -1.1482934270054e-17
  25    -0.018485255731994
  26     0.022224763705701
  27    6.2508077590822e-17
  28    2.5733845107808e-16
  29    -7.0772371168734e-17
  30    5.4541710554408e-17
  31    5.0553764553666e-16
  32    2.6431641449469e-16
  33    -3.6620503767722e-16
  34     -0.15496550242926
  35    4.0164497055415e-16
  36    -6.5339823636806e-16
  37      -0.2842783434754
  38    -6.0398459434663e-20
  39    -0.018485255731695
  40    -0.022224763699433
  41    4.6843161553022e-17
  42    9.0704636123905e-17
  43    9.6115434904195e-18
  44    -6.8838875312885e-16
  45    2.9268014806746e-15
  46    -1.7447121657795e-17
  47    -2.7584837376459e-16
  48      0.30992038011238
  49    -5.0728065865777e-16
  50    -6.2173367978888e-16
  51      0.56856740645077
  52    -2.4312917182624e-18
  53    -5.5757539631977e-12
  54    -0.0098012203783739
  55    -9.7155417619818e-17
  56    -2.7877999239896e-16
  57    3.7441790080591e-17
  58    -7.8816644165225e-17
  59    -1.7127293406453e-15
  60    1.0808692216728e-16
  61    3.6178753612928e-17
  62     -0.15496550233827
  63    -1.0427454328654e-15
  64    7.767204550312e-16
  65      -0.2842783433085
  66    7.7810404421972e-17
  67     0.018485255731994
  68    -0.022224763705699
  69    -3.9623815256456e-17
  70    6.0650933059793e-17
  71    1.2450803393807e-16
  72    -3.3318815432731e-16
  73    -2.8988694041868e-16
  74    7.5465978559153e-17
  75    -7.841548160476e-17
  76     -0.15496550242925
  77    4.4375652835588e-15
  78    -3.4674128127104e-16
  79     -0.28427834347541
  80    -1.1736968451027e-17
  81     0.018485255731695
  82     0.022224763699432
  83    -3.5820794024035e-17
  84    2.9336502222382e-16
  85    1.6706833218536e-16
  86    -1.0868783126814e-15
  87    9.5655621989042e-17
  88    -1.2452727979203e-15
  89    4.7917862900226e-16
  90    -2.8618407001734e-15
  91    -1.0759985381811e-16
  92    -1.9104993253339e-15
  93    -1.6641679390987e-16
  94    1.5941963959494e-15
  95    3.9859939802938e-16
  96    4.0362805327581e-15
 Sym= A
 Ene=     0.147007169
 Spin= Alpha
 Occup=    0.00000
   1    2.9405664757558e-17
   2    7.607489495143e-17
   3    -1.4950899305712e-16
   4    -1.9639224915388e-16
   5    2.307298656983e-16
   6    -5.2534586422633e-11
   7    1.7835093642624e-15
   8    -1.7101658380255e-15
   9    -9.6387937324545e-11
  10    -2.3057452914594e-17
  11     0.032897274166194
  12    -1.6609964270603e-12
  13    -8.6973161739763e-17
  14    -1.6031640790578e-16
  15    1.4392938730839e-16
  16    -7.0914846122751e-18
  17    -5.1186370006848e-15
  18    -6.0508371028266e-16
  19    -2.3206881886917e-16
  20      0.26839831365187
  21    6.9264347872229e-16
  22    3.4718143942117e-16
  23      0.49240298547335
  24    8.9397171646045e-17
  25    -0.00087987697289851
  26     0.018488328556153
  27    -3.321721631361e-17
  28    -1.6668970113287e-16
  29    1.0022785150175e-16
  30    5.0372438107554e-16
  31    -2.7856449988155e-15
  32    -3.827971713751e-16
  33    6.216542265275e-16
  34     -0.26839831359935
  35    2.8101170161804e-16
  36    3.9704438968334e-15
  37     -0.49240298537697
  38    6.3518800751123e-17
  39    0.00087987697916446
  40     0.018488328563685
  41    -1.9995990374571e-17
  42    -3.0355009980534e-17
  43    -2.5012499023325e-17
  44    1.483714240823e-16
  45    6.599422875016e-17
  46    4.1048030292458e-16
  47    5.9956788056385e-17
  48    -5.2516733893769e-11
  49    3.2664550179925e-15
  50    -1.0305369555032e-15
  51    -9.6348978067922e-11
  52    4.4962237310655e-17
  53    -0.032897274166196
  54    1.6610172080715e-12
  55    -1.0830519381145e-17
  56    -8.8785974278159e-17
  57    -8.8280149958546e-17
  58    -7.8361513869016e-16
  59    5.4765614315338e-15
  60    -2.6014693813819e-16
  61    -8.8590727761986e-17
  62      0.26839831365186
  63    6.1573497452692e-16
  64    -1.7853350149311e-15
  65      0.49240298547331
  66    -8.9921200417537e-17
  67    0.00087987697289928
  68    -0.018488328556153
  69    1.9540923103315e-16
  70    3.8662946561563e-17
  71    -2.7357718337474e-17
  72    1.0226724463195e-16
  73    1.4398245737542e-15
  74    -2.775390248365e-17
  75    2.9044136464561e-16
  76     -0.26839831359934
  77    -3.7265423773524e-16
  78    1.1380228289655e-15
  79     -0.49240298537695
  80    -8.0152641810998e-17
  81    -0.00087987697916468
  82    -0.018488328563686
  83    7.2257746068643e-17
  84    -1.8060075284749e-16
  85    7.9087985893558e-17
  86    1.5912102058334e-15
  87    1.2011364771446e-16
  88    1.111579361843e-15
  89    1.4322053234523e-16
  90    2.6039115657872e-15
  91    1.2718523682522e-16
  92    -5.0257095308077e-16
  93    -1.6867588340631e-16
  94    -2.1228840871867e-15
  95    9.2913230728138e-18
  96    -1.2450623417581e-15
 Sym= A
 Ene=      0.23409762
 Spin= Alpha
 Occup=    0.00000
   1     0.037215007547295
   2    -0.044360427188447
   3     -0.55467095148772
   4    2.2465794102679e-14
   5     -0.10809303601435
   6    3.393653281094e-16
   7    7.9926373676727e-13
   8      -0.3097042326104
   9    -2.5625285192641e-16
  10    -0.0018337439612119
  11    4.0259288300052e-17
  12    -1.493828130818e-16
  13    -0.016936429200695
  14    -1.3938889604645e-14
  15     0.037209921149135
  16    -0.044326603248715
  17     -0.55468927857436
  18    -0.093685076392822
  19    -0.054138684976676
  20    2.5522744098918e-16
  21     -0.26804705476843
  22     -0.15492932942638
  23    -5.2321311010025e-16
  24    -0.0018322405811262
  25    6.614311090536e-18
  26    -3.4424463650871e-17
  27    0.0084595823986727
  28     0.014673956042751
  29     0.037209921149057
  30    -0.044326603248833
  31     -0.55468927857267
  32    -0.093685076392784
  33     0.054138684976712
  34    9.6727164375756e-17
  35     -0.26804705476817
  36      0.15492932942567
  37    -6.2516550647695e-17
  38    -0.0018322405811433
  39    -6.8190605151184e-18
  40    8.0029909008865e-18
  41    0.0084595823986793
  42    -0.014673956042743
  43     0.037215007547307
  44    -0.044360427188489
  45     -0.55467095148729
  46    -3.3362941569136e-14
  47       0.1080930360144
  48    1.4205211005625e-16
  49    -8.2560859443661e-13
  50      0.30970423261134
  51    3.0065629297601e-16
  52    -0.001833743961218
  53    1.1535104884451e-17
  54    -1.1935774180581e-17
  55    -0.016936429200693
  56    -1.1188379341846e-14
  57     0.037209921149114
  58    -0.044326603248678
  59     -0.55468927857445
  60     0.093685076392754
  61     0.054138684976643
  62    -1.6554731138262e-16
  63      0.26804705476745
  64      0.15492932942601
  65    -4.2105165794919e-16
  66    -0.0018322405811208
  67    -1.1217116179319e-18
  68    -1.1015382034571e-18
  69    0.0084595823986736
  70     0.014673956042752
  71     0.037209921149049
  72    -0.044326603248839
  73     -0.55468927857184
  74     0.093685076392705
  75    -0.054138684976641
  76    2.0722628241944e-16
  77      0.26804705476849
  78     -0.15492932942573
  79    3.7036038706617e-16
  80    -0.001832240581147
  81    3.011033022652e-17
  82    2.9124062521354e-17
  83    0.0084595823986797
  84    -0.014673956042741
  85     0.034812489308148
  86      0.78026892477292
  87     0.034850200181303
  88      0.78009374376892
  89      0.03485020018129
  90      0.78009374376785
  91     0.034812489308164
  92      0.78026892477374
  93     0.034850200181289
  94       0.7800937437679
  95     0.034850200181304
  96      0.78009374376757
 Sym= A
 Ene=    0.2930497476
 Spin= Alpha
 Occup=    0.00000
   1    -4.6070310817885e-11
   2    1.5080976540558e-11
   3    1.3731182154163e-09
   4     0.016620805697731
   5    2.472082880287e-10
   6    2.4979109754132e-17
   7     -0.30599361110721
   8    8.3198624336147e-10
   9    2.114086673978e-16
  10    -4.3186418358388e-12
  11    1.8910054620497e-17
  12    -3.5919375545438e-17
  13    8.3434417144299e-12
  14      0.01194002585312
  15    -0.032901353328005
  16     0.010912745060665
  17      0.97702875535732
  18      0.15660314203447
  19     0.080896648952995
  20    -2.8205972477478e-16
  21      0.43788957211072
  22      0.42968520541886
  23    5.2339580056457e-17
  24    -0.0030567945465794
  25    -1.6849393212486e-16
  26    -4.6344702606813e-17
  27    0.0022012538763936
  28    -0.0081427032789801
  29    -0.032901353281676
  30     0.010912745044779
  31       0.9770287539896
  32      0.15660314183753
  33    -0.080896648799005
  34    3.9586919362916e-16
  35      0.43788957105968
  36     -0.42968520555656
  37    1.5039170424426e-15
  38    -0.0030567945423508
  39    1.7179061224713e-16
  40    3.5859031991711e-17
  41    0.0022012539023519
  42    0.0081427032843683
  43    4.6253345614985e-11
  44    -1.503030399494e-11
  45    -1.3776275407599e-09
  46     0.016620805697631
  47    2.4740938334169e-10
  48    -1.1504933504384e-15
  49      -0.3059936111084
  50    8.3181938435347e-10
  51    -2.7475351586229e-15
  52    4.3467513603907e-12
  53    -1.3056130308393e-16
  54    2.4294144697289e-17
  55    -8.3522182027949e-12
  56    -0.011940025853116
  57     0.032901353328078
  58      -0.0109127450607
  59     -0.97702875535867
  60      0.15660314203464
  61     0.080896648952926
  62    1.8292250721252e-15
  63      0.43788957211244
  64      0.42968520541828
  65    2.2596171103243e-15
  66    0.0030567945465779
  67    -8.2265404409607e-17
  68    -4.4642130950027e-17
  69    -0.0022012538763935
  70    0.0081427032789881
  71     0.032901353281482
  72    -0.010912745044823
  73     -0.97702875398464
  74      0.15660314183748
  75    -0.080896648798901
  76    -5.8931000754488e-16
  77      0.43788957105952
  78     -0.42968520555568
  79    -1.7825251101858e-15
  80    0.0030567945423195
  81    8.1760978924804e-17
  82    -6.9162601858531e-17
  83    -0.0022012539023342
  84    -0.0081427032843763
  85    -8.8584632987043e-12
  86    -1.6283124302246e-09
  87    -0.0064420236600716
  88      -1.1605857561165
  89    -0.0064420236509872
  90      -1.1605857544812
  91    8.8579142240224e-12
  92    1.6301664095966e-09
  93    0.0064420236601013
  94       1.1605857561183
  95    0.0064420236510395
  96       1.1605857544787
 Sym= A
 Ene=    0.2930689245
 Spin= Alpha
 Occup=    0.00000
   1    -0.037948712353013
   2     0.012476183561749
   3       1.1290696433459
   4    -2.0281005861256e-11
   5      0.20318291489136
   6    -4.2562951052328e-16
   7    3.7170901820331e-10
   8      0.68475015871789
   9    8.1521859161529e-16
  10    -0.0035485832449883
  11    -6.2364816575456e-17
  12    1.5399901916294e-16
  13    0.0068555364059585
  14    -1.4533801901643e-11
  15    -0.019049861708219
  16    0.0064720903070867
  17      0.56346140384824
  18     0.080908934683441
  19     0.063249092779834
  20    2.8441826266168e-16
  21      0.43077875853729
  22    -0.057090578527374
  23    1.0730294705256e-16
  24    -0.0017510854983583
  25    2.4054296380671e-16
  26    -9.1063692623934e-17
  27    -0.010659073176104
  28    0.0022086594584905
  29     0.019049861788244
  30    -0.0064720903337659
  31      -0.5634614062247
  32    -0.080908935064729
  33     0.063249092976674
  34    -2.5642801738452e-17
  35     -0.43077875960328
  36    -0.057090577482458
  37    -9.2999903515592e-16
  38    0.0017510855057903
  39    -1.4920829822097e-17
  40    5.2499604480674e-17
  41     0.010659073170746
  42     0.002208659438658
  43     0.037948712353132
  44    -0.012476183561768
  45      -1.1290696433485
  46    -2.0212523363583e-11
  47      0.20318291489153
  48    4.2129143521017e-16
  49    3.7245870590316e-10
  50      0.68475015871915
  51    9.423330854728e-16
  52        0.003548583245
  53    -2.4552878574187e-17
  54    -1.9054697906472e-17
  55    -0.0068555364059393
  56    1.4530151406897e-11
  57      0.01904986170807
  58    -0.0064720903070111
  59     -0.56346140384515
  60     0.080908934683297
  61     0.063249092779691
  62    -2.0588805508444e-16
  63      0.43077875853636
  64    -0.057090578528581
  65    -6.1472733466167e-16
  66    0.0017510854983483
  67    2.9062892453844e-17
  68    -2.5538238909128e-17
  69     0.010659073176108
  70    -0.0022086594584824
  71    -0.019049861788238
  72    0.0064720903337076
  73      0.56346140622463
  74    -0.080908935064697
  75     0.063249092976792
  76    -5.9875424916958e-17
  77     -0.43077875960304
  78    -0.057090577481896
  79    1.0952765441462e-16
  80    -0.0017510855057915
  81    -9.9043926296101e-18
  82    2.4702050685146e-17
  83    -0.010659073170758
  84    -0.0022086594386625
  85    -0.0073002073370213
  86      -1.3394288385383
  87    -0.0037017281785857
  88     -0.67135730214146
  89    0.0037017281942686
  90      0.67135730496568
  91    0.0073002073370003
  92       1.3394288385406
  93    0.0037017281785839
  94      0.67135730213872
  95    -0.0037017281942763
  96     -0.67135730496578
 Sym= A
 Ene=    0.3309206064
 Spin= Alpha
 Occup=    0.00000
   1    2.1417773238389e-11
   2    -2.4299915100128e-11
   3    -4.0925829098694e-10
   4    -0.054842372461245
   5    -2.7397444518902e-11
   6    5.8207292587248e-16
   7      -0.4214962784038
   8    -2.1258217521837e-10
   9    2.2212299553131e-15
  10    4.078584426209e-13
  11    -1.3376311607266e-16
  12    -5.2880650910978e-17
  13    2.5934851054926e-12
  14    -0.010719927733704
  15    -0.068196211246468
  16     0.076346159989209
  17       1.3280475719603
  18     0.089157020907486
  19     0.019814817225972
  20    -1.6638995559915e-15
  21      0.67334613932644
  22      0.14663191223311
  23    -1.5973319399717e-15
  24    -0.0015063926251129
  25    1.2422119233933e-16
  26    -9.8008503808917e-17
  27    0.0088177997201897
  28     0.004553670832179
  29     0.068196211225444
  30    -0.076346159965851
  31      -1.3280475715501
  32    -0.089157020896673
  33     0.019814817190534
  34    7.5284898633436e-16
  35      -0.6733461392483
  36      0.14663191196328
  37    2.1820350924432e-15
  38    0.0015063926246394
  39    9.0415800623255e-17
  40    -1.9457693475826e-17
  41    -0.0088177997231772
  42    0.0045536708274897
  43    2.0626931725629e-11
  44    -2.2673810632399e-11
  45    -4.1071582265554e-10
  46     0.054842372461335
  47    2.6273461833669e-11
  48    -9.0835327687489e-16
  49      0.42149627840429
  50    1.9130844114252e-10
  51    -2.1468182829182e-15
  52    5.3935587433901e-13
  53    -6.6176953943503e-18
  54    6.2750135418073e-17
  55    2.5155392305424e-12
  56    -0.010719927733721
  57     -0.06819621124573
  58     0.076346159987362
  59       1.3280475719646
  60    -0.089157020906498
  61    -0.019814817225425
  62    7.0793844325829e-16
  63     -0.67334613930839
  64     -0.14663191222148
  65    2.1459184368108e-15
  66    -0.0015063926252621
  67    -4.148007739239e-17
  68    -4.1213341170776e-17
  69    0.0088177997201198
  70    0.0045536708321253
  71     0.068196211224796
  72    -0.076346159964216
  73      -1.3280475715558
  74     0.089157020896404
  75    -0.019814817190305
  76    -8.5966008961782e-16
  77      0.67334613923214
  78     -0.14663191195216
  79    -1.9886456960636e-15
  80    0.0015063926247876
  81    1.0796905324139e-16
  82    4.4719044995305e-18
  83    -0.0088177997231028
  84    0.0045536708273959
  85    -3.5893250637668e-12
  86    3.9128110610637e-10
  87     0.012210556917733
  88      -1.2351919975457
  89    -0.012210556913972
  90        1.235191997164
  91    -3.9218035698528e-12
  92    3.7008549264836e-10
  93     0.012210556918092
  94      -1.2351919975247
  95    -0.012210556914275
  96       1.2351919971468
 Sym= A
 Ene=    0.3310236179
 Spin= Alpha
 Occup=    0.00000
   1    -0.078753737813063
   2     0.088087973111462
   3       1.5352836256676
   4    -1.4609187569248e-11
   5      0.10055569841067
   6    -4.5860086700178e-16
   7    -1.1202158138503e-10
   8      0.75780268275056
   9    -6.3479309555259e-16
  10    -0.0017569207234565
  11    -1.1788124555149e-16
  12    4.0151518714431e-18
  13    -0.0096390709680845
  14    -2.8574614558598e-12
  15     0.039373517878635
  16    -0.044065675572804
  17     -0.76732581656506
  18    -0.019808181990085
  19    -0.066251100188295
  20    3.0214149243794e-16
  21     -0.14556709127648
  22     -0.50544960158431
  23    5.1880927039878e-16
  24    0.0008746900846601
  25    -2.8331246457369e-17
  26    8.0943089561523e-17
  27    0.0056312586884324
  28    -0.0088065332597968
  29     0.039373517915438
  30    -0.044065675613474
  31     -0.76732581728392
  32    -0.019808182038049
  33     0.066251100199144
  34    -8.0254468065659e-17
  35     -0.14556709163557
  36      0.50544960166109
  37    -4.3213944576686e-16
  38    0.00087469008553561
  39    -5.9627221947933e-17
  40    1.044441254554e-17
  41    0.0056312586837562
  42    0.0088065332622386
  43    -0.078753737813393
  44      0.08808797311131
  45       1.5352836256757
  46    1.4657354250435e-11
  47     -0.10055569841062
  48    1.5547140965197e-16
  49    1.1187420270729e-10
  50     -0.75780268274903
  51    5.5701953683818e-16
  52    -0.001756920723524
  53    4.4293152541122e-17
  54    -2.9052033813834e-18
  55    -0.0096390709681139
  56    -2.8743197981997e-12
  57     0.039373517879092
  58    -0.044065675572781
  59     -0.76732581657614
  60     0.019808181990769
  61     0.066251100188737
  62    -2.1606517064987e-16
  63      0.14556709127722
  64      0.50544960158485
  65    -6.6652342976814e-16
  66    0.00087469008473003
  67    5.900886207163e-18
  68    3.7091515380425e-18
  69    0.0056312586884437
  70    -0.008806533259787
  71     0.039373517915073
  72    -0.044065675613621
  73     -0.76732581727501
  74     0.019808182037908
  75    -0.066251100198997
  76    1.8641892604641e-16
  77      0.14556709163613
  78      -0.5054496016614
  79    7.8970387905137e-16
  80    0.00087469008546892
  81    -3.0153404683501e-17
  82    5.8010708888141e-18
  83    0.0056312586837442
  84    0.0088065332622137
  85     0.014163052428135
  86      -1.4270791182225
  87    -0.0070643962203965
  88      0.71325060631375
  89    -0.0070643962268848
  90      0.71325060697738
  91     0.014163052428109
  92      -1.4270791182247
  93    -0.007064396220325
  94      0.71325060632075
  95    -0.0070643962269178
  96      0.71325060697357
 Sym= A
 Ene=    0.3354094267
 Spin= Alpha
 Occup=    0.00000
   1     -0.04313315215625
   2      0.13965661585469
   3     -0.64432738268357
   4    -3.5780178268718e-13
   5     0.058667841809909
   6    4.3007353287694e-16
   7    -2.9374441625016e-12
   8       1.6458330895295
   9    1.2758359176908e-15
  10     0.013926106691608
  11    -6.1778908866891e-17
  12    -1.3439528050025e-16
  13    -0.0072941357790094
  14    -6.7392696020202e-14
  15     0.043067623452332
  16     -0.13969484749778
  17      0.64816330669078
  18     -0.05059916732879
  19    -0.029180818898342
  20    -5.897465565843e-16
  21      -1.4236253619992
  22     -0.82332527661342
  23    -1.2285297716386e-15
  24    -0.013946940449252
  25    -9.9417642510218e-17
  26    -3.2242251451272e-17
  27    -0.0036648251945423
  28    -0.0063204122843661
  29    -0.043067623452191
  30      0.13969484749777
  31     -0.64816330669478
  32     0.050599167329132
  33    -0.029180818898254
  34    4.9386617850587e-16
  35       1.4236253619994
  36     -0.82332527661036
  37    1.4038380464154e-15
  38     0.013946940449263
  39    8.5061636624972e-17
  40    1.9618278307627e-16
  41    0.0036648251945614
  42     -0.00632041228429
  43     0.043133152155898
  44     -0.13965661585416
  45      0.64432738268968
  46    4.9848766829562e-13
  47     0.058667841809405
  48    -5.5225294365987e-16
  49    5.6079940338893e-12
  50       1.6458330895244
  51    -1.5370733229024e-15
  52    -0.013926106691597
  53    -5.0490393508013e-17
  54    1.8650291629232e-17
  55    0.0072941357789599
  56    -6.4575109281976e-14
  57    -0.043067623453262
  58      0.13969484749868
  59     -0.64816330667151
  60    -0.050599167330032
  61    -0.029180818898335
  62    5.3486842856659e-16
  63      -1.4236253620054
  64     -0.82332527661281
  65    1.6449899087954e-15
  66     0.013946940449202
  67    -2.1940744004609e-17
  68    -2.4258670249807e-17
  69    0.0036648251947103
  70    0.0063204122843571
  71     0.043067623453438
  72     -0.13969484749913
  73      0.64816330666987
  74     0.050599167330521
  75    -0.029180818898808
  76    -5.2725289207356e-16
  77       1.4236253620084
  78     -0.82332527661455
  79    -1.5243266007741e-15
  80    -0.013946940449222
  81    5.2363602139749e-17
  82    -1.7847622563958e-17
  83    -0.0036648251946734
  84    0.0063204122843996
  85    -0.023474813576533
  86       -1.399482557778
  87     0.023494801068454
  88       1.3964864650816
  89    -0.023494801068476
  90      -1.3964864650799
  91     0.023474813576583
  92       1.3994825577702
  93     -0.02349480106827
  94      -1.3964864650952
  95     0.023494801068276
  96       1.3964864651006
 Sym= A
 Ene=    0.3658618149
 Spin= Alpha
 Occup=    0.00000
   1    -6.3709915404823e-17
   2    2.9017707040482e-16
   3    1.3827610810383e-16
   4    -2.4808849078817e-16
   5    -2.6640047181179e-17
   6      -0.2365055985456
   7    -4.8791326931192e-15
   8    -1.2431368713431e-15
   9     -0.67701538694932
  10    1.0436945869443e-16
  11    -1.7700000321576e-15
  12    -0.016345085469304
  13    -1.7256976904131e-16
  14    -4.7139536284438e-16
  15    -2.1797143254895e-16
  16    1.3104939646177e-15
  17    4.9267911720619e-15
  18    6.287653023863e-17
  19    3.4499455286442e-16
  20      0.23650651993985
  21    1.0880410034987e-15
  22    1.2817549039754e-15
  23       0.6770253697403
  24    -1.0720812683782e-17
  25     0.014148918804563
  26    0.0081720669317432
  27    1.2770369484154e-16
  28    -3.923193525473e-17
  29    8.821533710932e-17
  30    -9.0575448663564e-17
  31    -3.8733171167529e-15
  32    3.9055909140078e-16
  33    -1.058924437289e-15
  34     -0.23650651993986
  35    5.1214033430277e-15
  36    7.1358904043918e-16
  37     -0.67702536974028
  38    2.2097621317619e-16
  39    -0.014148918804562
  40    0.0081720669317405
  41    -1.0246761018963e-16
  42    1.1322896752026e-16
  43    9.3560055141093e-17
  44    -1.6733628462463e-16
  45    7.0704560130442e-16
  46    -3.1039258817771e-16
  47    3.8267473884728e-16
  48      0.23650559854562
  49    6.4566546722674e-15
  50     3.97821545785e-15
  51      0.67701538694928
  52    -1.2108424906639e-16
  53    1.8970876912755e-15
  54    -0.016345085469305
  55    1.0274630868072e-16
  56    -2.5100502485604e-16
  57    -3.9695311066502e-16
  58    2.4036577349999e-16
  59    5.4355201397105e-15
  60    -3.2726096790237e-16
  61    7.6509130771399e-16
  62     -0.23650651993986
  63    -2.0913723007517e-15
  64    -4.7379667133832e-15
  65     -0.67702536974032
  66    -4.5889785017405e-17
  67     0.014148918804564
  68    0.0081720669317443
  69    3.0081408208826e-16
  70    1.640850370168e-16
  71    4.3010838459777e-16
  72    -1.7323183048777e-15
  73    -5.5262285818375e-15
  74    7.4952744684203e-16
  75    -1.1538348980008e-17
  76      0.23650651993986
  77    2.1927973820644e-15
  78    -3.681635510667e-15
  79      0.67702536974033
  80    -6.138471354993e-17
  81    -0.014148918804562
  82    0.0081720669317441
  83    -9.196256574212e-17
  84    -1.3709506126527e-16
  85    -1.8075450012785e-16
  86    1.0930800204034e-15
  87    1.9474654834576e-16
  88    -4.5839822408706e-15
  89    -4.8323521845834e-16
  90    -3.8910486351224e-15
  91    2.6986047733658e-16
  92    3.5870485594163e-15
  93    7.1615891962432e-17
  94    -5.7901654927058e-15
  95    -2.8473874039917e-16
  96    7.6494026225658e-15
 Sym= A
 Ene=     0.471262556
 Spin= Alpha
 Occup=    0.00000
   1    -0.073316717936116
   2     0.055444260715549
   3       2.1825318408125
   4    1.1977640627062e-11
   5     -0.19330690589225
   6    2.2278474717578e-16
   7    -7.87015874816e-10
   8      -1.7048938604535
   9    8.5055268953401e-16
  10    -0.0056142764624363
  11    -1.1782471392592e-16
  12    -1.7087257490428e-16
  13    0.0037640066549997
  14    -2.6286882880685e-11
  15     0.036671307683266
  16    -0.027787481605696
  17      -1.0916634175267
  18     0.077848201007596
  19     0.058408375693695
  20    -3.1248532411453e-16
  21       1.1501818859406
  22     -0.28756692700849
  23    -9.7051225247751e-16
  24    0.0028182375208726
  25    -1.4026773423954e-16
  26    6.1202687991302e-17
  27     0.024517122360688
  28     -0.01198931165244
  29     0.036671307789842
  30    -0.027787481685646
  31      -1.0916634207058
  32     0.077848201255635
  33       -0.058408375825
  34    3.7743187245751e-16
  35         1.15018188768
  36      0.28756692506715
  37    7.2412248747839e-16
  38    0.0028182375290993
  39    -1.1909514435741e-17
  40    -3.9220368154561e-17
  41     0.024517122340583
  42     0.011989311634602
  43    -0.073316717935932
  44     0.055444260715179
  45       2.1825318408061
  46    -1.0478809405787e-11
  47      0.19330690589204
  48    -1.4540210385226e-16
  49    8.0373302038092e-10
  50       1.7048938604559
  51    -5.8188581813035e-16
  52    -0.0056142764624596
  53    1.6389208019802e-17
  54    1.6274138501785e-17
  55    0.0037640066551722
  56    -2.6383243922112e-11
  57     0.036671307683164
  58    -0.027787481605443
  59      -1.0916634175236
  60    -0.077848201006583
  61    -0.058408375694996
  62    1.772315842479e-16
  63      -1.1501818859336
  64      0.28756692699094
  65    4.9881981755675e-16
  66    0.0028182375209068
  67    -4.8903189632875e-18
  68    -8.856574671202e-18
  69     0.024517122360664
  70    -0.011989311652266
  71     0.036671307789371
  72    -0.027787481686138
  73      -1.0916634206809
  74    -0.077848201255095
  75     0.058408375824498
  76    -1.6039972876147e-16
  77      -1.1501818876759
  78     -0.28756692507178
  79    -6.5156253813914e-16
  80    0.0028182375290032
  81    5.3174339190208e-17
  82    9.8205967980725e-18
  83     0.024517122340717
  84     0.011989311634387
  85     0.012040452229019
  86       1.0103544775468
  87    -0.0061707530091481
  88     -0.50450018817124
  89    -0.0061707530268915
  90     -0.50450018963665
  91      0.01204045222843
  92       1.0103544775485
  93    -0.0061707530086933
  94     -0.50450018817269
  95    -0.006170753025878
  96     -0.50450018963571
 Sym= A
 Ene=    0.4713212268
 Spin= Alpha
 Occup=    0.00000
   1    6.1494661210696e-11
   2    -4.6443247040499e-11
   3    -1.8316705956624e-09
   4     0.013408570046549
   5    1.6173131891392e-10
   6    -7.4694785343117e-16
   7     -0.95159927254428
   8    1.4305308796556e-09
   9    1.2404040180189e-15
  10    4.7291421056552e-12
  11    -3.445315064074e-17
  12    -1.5195100327486e-16
  13    -3.1626298802045e-12
  14    -0.031453794308842
  15    -0.063524967569256
  16     0.048044016780163
  17        1.891541449545
  18     -0.14833713324316
  19    -0.077887868203694
  20    -1.7391518582162e-15
  21        -1.04024736047
  22      -1.1510664264379
  23    4.1641239314597e-16
  24    -0.004864401505959
  25    -7.0475618199715e-17
  26    3.0226074978234e-18
  27     0.011986749740267
  28    -0.010675513921091
  29     0.063524967508023
  30    -0.048044016733516
  31      -1.8915414477254
  32      0.14833713311313
  33    -0.077887868105646
  34    -7.9587011123299e-16
  35       1.0402473585477
  36      -1.1510664269158
  37    1.5534237495928e-15
  38    0.0048644015012693
  39    -4.8171450823134e-17
  40    7.1721286582181e-17
  41    -0.011986749781371
  42    -0.010675513941094
  43    6.1300033612963e-11
  44    -4.6720093762419e-11
  45    -1.8224703970733e-09
  46     -0.01340857004564
  47    -1.6196921130861e-10
  48    -1.0221554854064e-15
  49      0.95159927255394
  50    -1.4234467553568e-09
  51    -9.2384142503693e-16
  52    4.6401855567758e-12
  53    8.7405506883222e-17
  54    -1.0600445138853e-16
  55    -3.1290040416526e-12
  56    -0.031453794308895
  57    -0.063524967569176
  58     0.048044016780487
  59       1.8915414495406
  60      0.14833713324366
  61     0.077887868203369
  62    1.8892185802499e-16
  63        1.040247360468
  64        1.151066426429
  65    1.1840919339597e-15
  66    -0.0048644015058833
  67    1.1660760366804e-16
  68    1.5553256891874e-16
  69     0.011986749740284
  70    -0.010675513920979
  71     0.063524967507599
  72     -0.04804401673395
  73      -1.8915414477048
  74     -0.14833713311287
  75     0.077887868105831
  76    -8.8344096270134e-16
  77      -1.0402473585391
  78       1.1510664269143
  79    -9.3026062106176e-16
  80    0.0048644015011642
  81    2.3760373984023e-16
  82    7.2873464982026e-17
  83    -0.011986749781326
  84    -0.010675513941204
  85    -1.0027529086808e-11
  86    -8.463579657775e-10
  87     0.010420177217889
  88      0.87441469237815
  89     -0.01042017720794
  90     -0.87441469153342
  91    -1.0134423206551e-11
  92    -8.4472463980961e-10
  93     0.010420177218294
  94      0.87441469237662
  95    -0.010420177207514
  96     -0.87441469153221
 Sym= A
 Ene=    0.4958830491
 Spin= Alpha
 Occup=    0.00000
   1    1.3087389438297e-12
   2    -7.8969567853992e-13
   3    -5.302964447221e-11
   4      0.22571964897309
   5    1.760640399697e-12
   6    6.4605601230135e-16
   7       2.1718642822442
   8    1.2222628567649e-11
   9    -1.6379608900369e-16
  10    6.2534975508735e-14
  11    -3.2063629209048e-16
  12    1.1155322033344e-16
  13    7.589789257148e-13
  14     0.020760417824726
  15     0.041618076729137
  16    -0.018984922378001
  17      -1.8169696883609
  18     0.093506129083192
  19    -0.076253329884671
  20    6.6595224759836e-16
  21      0.73487415836349
  22     -0.82973458068376
  23    -7.3428248276169e-16
  24    0.0020448380108589
  25    1.4128966293696e-16
  26    7.2729996288418e-17
  27    -0.0068582337866976
  28    -0.032657280735813
  29     0.041618076728026
  30    -0.018984922377015
  31      -1.8169696883165
  32     0.093506129085511
  33     0.076253329892575
  34    -2.1900501544395e-16
  35      0.73487415839554
  36      0.82973458075325
  37    2.8172482990542e-16
  38    0.0020448380108475
  39    -6.5108885859919e-17
  40    5.9605307674257e-18
  41    -0.0068582337855656
  42     0.032657280735593
  43    -8.0854728617068e-13
  44    3.3974936891467e-14
  45    3.9128486926867e-11
  46      0.22571964897319
  47    1.4673258081263e-13
  48    6.0965056775423e-17
  49        2.171864282237
  50    2.0395100397792e-12
  51    -1.4269878504767e-16
  52    -6.7525472475155e-14
  53    -2.0348031643436e-16
  54    -8.8284543919231e-17
  55    -7.707992153382e-13
  56    -0.020760417824584
  57    -0.041618076729115
  58     0.018984922377888
  59       1.8169696883607
  60     0.093506129083119
  61      -0.0762533298844
  62    3.7154477954974e-16
  63      0.73487415836574
  64     -0.82973458068761
  65    -5.5950363236931e-16
  66    -0.002044838010864
  67    -2.2374814418236e-16
  68    -1.8251587126839e-16
  69    0.0068582337863554
  70     0.032657280736004
  71    -0.041618076728541
  72      0.01898492237792
  73       1.8169696883305
  74     0.093506129086797
  75      0.07625332989171
  76    4.3575122616719e-17
  77      0.73487415840794
  78      0.82973458075423
  79    3.2991632748268e-16
  80    -0.0020448380108444
  81    -2.5993862906809e-16
  82    5.1750889291221e-17
  83    0.0068582337854489
  84    -0.032657280735667
  85    -2.8866899359318e-12
  86    -1.6377824190438e-12
  87     -0.11918852297236
  88     0.078056080295965
  89     -0.11918852296948
  90     0.078056080296923
  91    2.8029920383435e-12
  92    -4.6513433543997e-12
  93      0.11918852297239
  94    -0.078056080295762
  95       0.1191885229696
  96    -0.078056080290724
 Sym= A
 Ene=    0.4959799509
 Spin= Alpha
 Occup=    0.00000
   1      0.04804587014421
   2    -0.021876697923407
   3      -2.0980253824231
   4    -4.6206106475203e-12
   5     0.049493720307245
   6    4.3101461096995e-16
   7    -4.5120997356938e-11
   8      0.25630648464314
   9    -6.1391203720172e-16
  10    0.0023554618584344
  11    -1.2091782938088e-17
  12    1.2141013693339e-16
  13     0.036615189808572
  14    -4.3883023511857e-13
  15     0.024039020685705
  16     -0.01098301695905
  17      -1.0489285112682
  18     -0.07632318960133
  19      0.18166624017995
  20    4.0804082217136e-16
  21      -0.8297788208558
  22       1.6931163099481
  23    -5.6511327942587e-16
  24    0.0011660113905767
  25    -2.4929869029832e-16
  26    2.3885545731577e-17
  27     -0.02472753376489
  28    -0.0068696036981166
  29    -0.024039020687253
  30     0.010983016959879
  31       1.0489285113379
  32     0.076323189597971
  33      0.18166624017645
  34    3.4928817054548e-16
  35      0.82977882083098
  36       1.6931163099154
  37    3.6705989820066e-17
  38    -0.0011660113906572
  39    -4.0362529386579e-17
  40    9.3398539630478e-18
  41     0.024727533765315
  42    -0.0068696036993683
  43     -0.04804587014456
  44     0.021876697923817
  45       2.0980253824334
  46    -4.6773135749762e-12
  47     0.049493720308369
  48    9.9579210173538e-17
  49    -4.4493400034445e-11
  50      0.25630648465112
  51    -9.1159240135587e-17
  52    -0.002355461858439
  53    2.8437104621778e-17
  54    1.4961142339822e-18
  55    -0.036615189808559
  56    4.1011087025172e-13
  57    -0.024039020685564
  58     0.010983016958865
  59       1.0489285112644
  60    -0.076323189601571
  61      0.18166624017973
  62    4.4007182338568e-17
  63     -0.82977882086049
  64       1.6931163099506
  65    -1.6379800614061e-16
  66    -0.0011660113905779
  67    -4.9630390431522e-18
  68    3.8314222228519e-18
  69     0.024727533765041
  70    0.0068696036980104
  71     0.024039020687452
  72    -0.010983016959834
  73      -1.0489285113445
  74     0.076323189597311
  75      0.18166624017697
  76     2.51934372853e-16
  77      0.82977882082466
  78       1.6931163099148
  79    2.9263068673905e-16
  80    0.0011660113906724
  81    -3.5671236386297e-17
  82    -6.6841630761901e-18
  83    -0.024727533765176
  84    0.0068696036994454
  85     -0.13754791621234
  86     0.089417449556204
  87    -0.068704723879619
  88     0.044620535753219
  89     0.068704723884482
  90    -0.044620535758979
  91      0.13754791621238
  92    -0.089417449551186
  93     0.068704723879562
  94    -0.044620535754744
  95    -0.068704723884548
  96     0.044620535755529
 Sym= A
 Ene=    0.6600724748
 Spin= Alpha
 Occup=    0.00000
   1    -3.2971723842897e-14
   2    2.0922390057791e-14
   3    1.3383709387214e-12
   4     -0.32820497010663
   5    1.4041128286629e-14
   6    -1.4232224863531e-15
   7      0.50348048253761
   8    -1.0345264275508e-12
   9    1.3950932920855e-15
  10    -4.1675990663699e-15
  11    1.7891184272565e-16
  12    2.418680974139e-16
  13    -3.397603364373e-15
  14     0.048195244278093
  15    7.2491861084699e-06
  16    0.00017472352211819
  17    -0.00058719793244676
  18      0.16432833599718
  19     -0.28436336191456
  20    3.6308999368385e-16
  21     -0.25136150892907
  22      0.43525578903293
  23    3.1789951040687e-16
  24    -1.7269210664324e-05
  25    1.0518842038645e-16
  26    1.5467444007738e-16
  27    -0.041723458009316
  28     0.024063411104063
  29    7.2491860612999e-06
  30    0.00017472352206937
  31    -0.00058719792999559
  32      0.16432833599716
  33      0.28436336191448
  34    1.7597451391554e-15
  35      -0.2513615089317
  36     -0.43525578903373
  37    -3.4442667072978e-15
  38    -1.7269210675486e-05
  39    1.0044025246478e-16
  40    9.5274036909824e-18
  41    -0.041723458009319
  42     -0.02406341110406
  43    2.4410576624781e-14
  44    4.1851332035479e-14
  45    -1.278269642744e-12
  46     -0.32820497010671
  47    1.3101627162232e-14
  48    9.5601560298144e-16
  49      0.50348048253578
  50    -9.1896192007351e-13
  51    7.5372920379684e-16
  52    3.2953160853036e-15
  53    2.0070222048365e-16
  54    2.2303393733088e-16
  55    4.3135623883968e-15
  56    -0.048195244278112
  57    -7.2491861084511e-06
  58    -0.00017472352206588
  59    0.00058719793242563
  60      0.16432833599716
  61     -0.28436336191448
  62    2.7107767480539e-16
  63     -0.25136150893011
  64      0.43525578903458
  65    -9.2831394681542e-16
  66    1.7269210660709e-05
  67    -3.7982521883784e-16
  68    1.6907676855391e-17
  69     0.041723458009313
  70    -0.024063411104066
  71    -7.2491860553867e-06
  72    -0.00017472352204345
  73    0.00058719792983329
  74      0.16432833599715
  75      0.28436336191452
  76    2.4005276629702e-16
  77     -0.25136150893075
  78     -0.43525578903205
  79    1.5177408752446e-17
  80    1.7269210669862e-05
  81    -8.6484843264411e-17
  82    -7.6518808194159e-17
  83     0.041723458009322
  84     0.024063411104068
  85    1.1462704670687e-15
  86    3.3268437072422e-13
  87    0.00013710102188142
  88    -0.00022637783431572
  89    0.00013710102184171
  90    -0.00022637783371053
  91    7.8574114983995e-15
  92    -2.9545515400143e-13
  93    -0.00013710102187987
  94    0.00022637783430934
  95    -0.00013710102184196
  96    0.00022637783370351
 Sym= A
 Ene=    0.7429475414
 Spin= Alpha
 Occup=    0.00000
   1    -0.0052301228137128
   2      0.39235316703455
   3     -0.29301640866757
   4    -3.7224169324294e-14
   5     -0.22555372483954
   6    7.269977767994e-15
   7    -1.4436434884198e-12
   8      0.18299806580676
   9    -5.7625913152379e-15
  10    -0.019575816105037
  11    2.2330118008635e-16
  12    -3.3119508201654e-16
  13     0.071109129483638
  14    -1.0381606384907e-14
  15    -0.0052355686441954
  16      0.39240342522073
  17     -0.29279279068606
  18     -0.19530521892023
  19     -0.11275599581455
  20    6.4510728060723e-15
  21      0.15784600082255
  22     0.091206724608051
  23    -5.0391266147747e-15
  24    -0.019577594786064
  25    -1.9473162463811e-16
  26    1.1426714893635e-16
  27    -0.035550400381867
  28    -0.061590782245107
  29    -0.0052355686442733
  30      0.39240342522052
  31     -0.29279279068228
  32     -0.19530521892022
  33      0.11275599581468
  34    4.254244078569e-15
  35      0.15784600082173
  36    -0.091206724604259
  37    -2.3617308404373e-15
  38    -0.019577594786066
  39    -1.0207741205987e-16
  40    1.2345935883963e-16
  41     -0.03555040038189
  42     0.061590782245115
  43    -0.0052301228136328
  44       0.3923531670344
  45     -0.29301640867074
  46    6.2422120766578e-14
  47      0.22555372483948
  48    3.835311011015e-15
  49    1.3728495836519e-12
  50      -0.1829980658093
  51    -2.5320175275401e-15
  52    -0.019575816105031
  53    3.0338561851694e-17
  54    1.2184979798307e-16
  55     0.071109129483652
  56    -1.0874952324642e-14
  57    -0.0052355686442786
  58      0.39240342522071
  59     -0.29279279068274
  60      0.19530521892022
  61      0.11275599581453
  62    4.0233392414714e-15
  63     -0.15784600082028
  64    -0.091206724606709
  65    -2.6174170228792e-15
  66    -0.019577594786057
  67    1.0340175679366e-16
  68    1.5589838902603e-16
  69    -0.035550400381886
  70    -0.061590782245111
  71    -0.0052355686441966
  72      0.39240342522054
  73     -0.29279279068571
  74      0.19530521892013
  75     -0.11275599581467
  76    5.3471006028346e-15
  77     -0.15784600082383
  78       0.0912067246055
  79    -3.3535006122625e-15
  80    -0.019577594786064
  81    2.6204661097214e-16
  82    -6.2290196280854e-17
  83    -0.035550400381879
  84     0.061590782245108
  85     -0.18390284058151
  86      0.20359489041849
  87     -0.18388872507514
  88      0.20405083618804
  89     -0.18388872507528
  90      0.20405083618899
  91      -0.1839028405815
  92      0.20359489041757
  93     -0.18388872507526
  94      0.20405083618904
  95     -0.18388872507515
  96      0.20405083618809
 Sym= A
 Ene=    0.7565610827
 Spin= Alpha
 Occup=    0.00000
   1    1.577445629439e-16
   2    -4.6482674992809e-15
   3    7.0718161270205e-16
   4    6.1412870885554e-15
   5    3.3942061477368e-15
   6       0.4300619878519
   7    5.8513193629865e-15
   8    6.4285267875353e-17
   9     -0.30164019575108
  10    2.1049199353847e-16
  11    9.3389740091371e-16
  12    -0.021343318758607
  13    -1.0322535434648e-15
  14    5.0441521107772e-16
  15    1.3188512047342e-16
  16    -4.8512075506361e-15
  17    1.685010280898e-14
  18    3.5158610940399e-15
  19    3.0044409485098e-15
  20      0.43008160464177
  21    3.0471819822662e-16
  22    -2.2296695435215e-14
  23     -0.30169498296935
  24    -3.060109807723e-16
  25    -0.018488380299252
  26     -0.01067692926219
  27    5.4624431482426e-17
  28    4.0967737483699e-16
  29    -2.0507749045989e-16
  30    -4.8936148356584e-15
  31    -1.6401743523418e-15
  32    1.9009039955903e-16
  33    2.7076864606135e-16
  34      0.43008160464173
  35    -5.5066889396413e-15
  36    -2.2953151136234e-14
  37     -0.30169498296927
  38    5.5801690067361e-16
  39    -0.018488380299254
  40     0.010676929262192
  41    8.4768754573296e-16
  42    -8.9182542812615e-16
  43    9.4924927426401e-17
  44    -4.7855091322522e-15
  45    5.1876289115709e-15
  46    -3.8261666144835e-15
  47    -2.8576324323778e-15
  48      0.43006198785192
  49    -1.6172003931863e-14
  50    3.6705688889352e-15
  51     -0.30164019575114
  52    2.5358503775676e-16
  53    -2.3088586630252e-15
  54     0.021343318758606
  55    -7.6244112831567e-16
  56    3.6982944379483e-16
  57    4.9341470606728e-16
  58    -4.7414992714187e-15
  59    2.7903091342361e-15
  60    -4.0371463978351e-15
  61    -3.3602237806022e-15
  62      0.43008160464174
  63    -5.1288047714446e-15
  64    2.1295054487394e-14
  65     -0.30169498296928
  66    -2.3410755407533e-16
  67     0.018488380299253
  68     0.010676929262193
  69    -2.0707241016962e-17
  70    4.5279236959058e-16
  71    -2.6106738929861e-16
  72    -4.6558165554982e-15
  73     -1.3454153888e-15
  74    -9.9127433088925e-16
  75    9.0657059048699e-17
  76      0.43008160464177
  77    7.6168817442778e-15
  78    1.5905791794523e-14
  79     -0.30169498296936
  80    8.9653919882859e-16
  81     0.018488380299252
  82    -0.010676929262191
  83    7.127791244118e-16
  84    -9.6243732998414e-16
  85    2.6670076577613e-15
  86    -3.7931760180739e-15
  87    3.1845348735765e-15
  88    1.0329804209252e-15
  89    1.1393289144687e-15
  90    -6.4214485885066e-15
  91    2.1107825047786e-15
  92    -1.917863850448e-15
  93    3.1486123873052e-15
  94    -4.4022075627463e-16
  95    5.0137306056171e-16
  96    -4.2966857284199e-15
 Sym= A
 Ene=    0.7768200331
 Spin= Alpha
 Occup=    0.00000
   1    -6.0041894869641e-12
   2    4.0403917531347e-12
   3    2.2858263961695e-10
   4      0.21617592812418
   5    -5.3513812509928e-12
   6    -2.1058685313657e-15
   7       3.9641460427361
   8    -1.7194556688413e-10
   9    2.2817738041952e-15
  10    6.1989359996889e-13
  11    3.787654049654e-16
  12    6.9178720980661e-17
  13    3.3347597665547e-13
  14    0.0081381225745171
  15    -6.0287048961942e-05
  16    1.9813375754227e-05
  17    0.00043431319237318
  18       0.1083660153905
  19     -0.18770708471881
  20    6.7905651009096e-16
  21       1.9816811651233
  22      -3.4329311858702
  23    -1.3685271921059e-15
  24    6.1639184318953e-05
  25    -1.4269461483571e-16
  26     2.38240825938e-17
  27    0.0070567118217188
  28    -0.0040553866212561
  29    6.0287048917784e-05
  30    -1.9813374360092e-05
  31    -0.0004343131942886
  32     -0.10836601539094
  33     -0.18770708471909
  34    -4.7471887022977e-16
  35      -1.9816811651232
  36      -3.4329311858696
  37    -3.9108116100493e-16
  38    -6.1639184365776e-05
  39    -7.1061374525929e-17
  40    2.7536359789223e-18
  41    -0.0070567118217726
  42    -0.0040553866214238
  43    6.0554120159565e-12
  44    -3.4684158377188e-12
  45    -2.2924497709224e-10
  46     -0.21617592812451
  47    -5.6246458924164e-12
  48    -3.8973984266118e-15
  49      -3.9641460427355
  50    -1.7129711965097e-10
  51    3.1956074392087e-15
  52    -7.8803983523443e-13
  53    -7.8309083720196e-17
  54    9.2040215340488e-17
  55    -2.5199956503808e-13
  56    0.0081381225746633
  57    -6.0287061036396e-05
  58    1.9813382340491e-05
  59    0.00043431365219991
  60     -0.10836601538122
  61      0.18770708472489
  62    -4.4465782652704e-15
  63      -1.9816811648263
  64        3.432931186041
  65    4.8610444645681e-15
  66    6.1639185804091e-05
  67    -2.2325988443353e-16
  68    -1.3693516579186e-16
  69    0.0070567118214185
  70    -0.0040553866218769
  71    6.0287061023392e-05
  72    -1.9813381152344e-05
  73    -0.0004343136529546
  74      0.10836601538114
  75      0.18770708472464
  76    -1.8775190623769e-15
  77       1.9816811648265
  78       3.4329311860416
  79    -1.4857806191767e-16
  80    -6.16391858871e-05
  81    -2.0633618816959e-16
  82    -3.3973482387436e-18
  83    -0.0070567118215288
  84    -0.004055386621822
  85    -7.8446858439399e-12
  86    6.5289744134761e-11
  87    -0.00031823767031362
  88    0.00041651792542174
  89    0.0003182376708877
  90    -0.00041651792536357
  91    8.1579411331518e-12
  92    -6.4905753633465e-11
  93    -0.00031823768697544
  94     0.000416518055275
  95    0.0003182376868927
  96    -0.00041651805485057
 Sym= A
 Ene=     0.781172634
 Spin= Alpha
 Occup=    0.00000
   1     -0.11690972574725
   2     0.078643039363668
   3       4.3580903328316
   4    -1.0559714053073e-11
   5     -0.11282058389043
   6    -1.4030654773461e-15
   7    -2.0229977124669e-10
   8      -3.2674102606687
   9     1.55254169802e-15
  10      0.01626816690739
  11    2.5219958751289e-16
  12    1.136780693798e-16
  13    0.0055614710119075
  14    -5.678417321727e-13
  15      0.11694235993607
  16    -0.078474815821757
  17      -4.3597679435696
  18     0.097564907458577
  19     0.056451031849266
  20    -1.0493264538669e-15
  21       2.8294211771584
  22       1.6343333341949
  23    1.3065280298686e-15
  24    -0.016313672392463
  25    -4.3288028183365e-17
  26    -2.0976723090377e-16
  27    0.0027898045219249
  28    0.0048446804153861
  29     -0.11694235993602
  30     0.078474815820778
  31       4.3597679435722
  32    -0.097564907458865
  33     0.056451031849453
  34    2.0817365951436e-15
  35      -2.8294211771578
  36       1.6343333341938
  37    -2.0930987194805e-15
  38     0.016313672392391
  39    -1.4086391016849e-16
  40    7.1673129304419e-17
  41    -0.0027898045218256
  42    0.0048446804155353
  43      0.11690972574725
  44    -0.078643039362452
  45       -4.358090332834
  46    1.153843961764e-11
  47     -0.11282058389127
  48    1.829057618111e-15
  49    2.0034353995842e-10
  50      -3.2674102606675
  51    -1.567508980003e-15
  52    -0.016268166907373
  53    3.7777966939713e-17
  54    1.6789293115572e-16
  55    -0.0055614710119951
  56    -6.627381259726e-13
  57     -0.11694235993605
  58     0.078474815821895
  59       4.3597679435685
  60     0.097564907470703
  61     0.056451031829558
  62    5.9521284777855e-16
  63        2.829421177357
  64       1.6343333338457
  65    -2.2803313379986e-16
  66      0.01631367239253
  67    9.3536888407119e-17
  68    -3.0943166657821e-17
  69    -0.0027898045225441
  70    -0.0048446804149175
  71      0.11694235993601
  72    -0.078474815822964
  73      -4.3597679435683
  74    -0.097564907470442
  75     0.056451031830128
  76    -9.7711578060204e-17
  77      -2.8294211773571
  78       1.6343333338448
  79    -8.9854834101803e-17
  80    -0.016313672392407
  81    -9.8810603542846e-17
  82    -3.8108098462321e-17
  83     0.002789804522619
  84    -0.0048446804150304
  85     -0.16111686021402
  86       1.2485989863921
  87       0.1614269954198
  88      -1.2482680316567
  89     -0.16142699542011
  90       1.2482680316561
  91      0.16111686021439
  92      -1.2485989863916
  93     -0.16142699541962
  94       1.2482680316555
  95      0.16142699541966
  96      -1.2482680316555
 Sym= A
 Ene=    0.7944781704
 Spin= Alpha
 Occup=    0.00000
   1    -0.0056454671799971
   2     -0.46971590272582
   3       0.5364769743165
   4    1.344625076871e-13
   5    -0.017467818087047
   6    -6.1287933248592e-15
   7    2.7286282357502e-12
   8      0.17190501139773
   9    6.8457155771977e-15
  10     0.063369668136654
  11    2.174698462552e-16
  12    2.0614622250086e-16
  13     0.039717306583489
  14    2.4959372411994e-14
  15    -0.0057089996624875
  16     -0.46959125140139
  17      0.53768592865616
  18    -0.015235419948492
  19    -0.0086621533956274
  20    -9.29301627743e-16
  21      0.14706822707255
  22     0.085216988510364
  23    9.1579003107828e-16
  24     0.063403867041595
  25    2.7868873915672e-16
  26    -1.1987596632559e-16
  27    -0.019862658919129
  28    -0.034397585486525
  29    -0.0057089996624692
  30     -0.46959125140109
  31      0.53768592865497
  32    -0.015235419948596
  33    0.0086621533952277
  34    5.2326116236131e-15
  35      0.14706822707017
  36    -0.085216988515325
  37    -5.5902553833715e-15
  38     0.063403867041591
  39    -4.9977676704016e-16
  40    3.9648402876741e-17
  41    -0.019862658919141
  42     0.034397585486509
  43    -0.0056454671800115
  44     -0.46971590272574
  45      0.53647697431705
  46    -1.5231366360963e-13
  47      0.01746781808706
  48    3.6758706835158e-15
  49    -2.7584876797171e-12
  50     -0.17190501139732
  51    -2.9710211433674e-15
  52      0.06336966813665
  53    1.5706653752142e-16
  54    4.0010880915284e-16
  55     0.039717306583496
  56    1.1452023785815e-14
  57    -0.005708999662469
  58     -0.46959125140124
  59      0.53768592865546
  60     0.015235419948524
  61    0.0086621533955957
  62    7.9315523914724e-16
  63     -0.14706822707302
  64    -0.085216988510455
  65    -6.7576425826904e-16
  66      0.06340386704158
  67    1.9786459412967e-16
  68    -1.9969963897417e-16
  69    -0.019862658919126
  70     -0.03439758548651
  71    -0.0057089996624796
  72     -0.46959125140105
  73       0.5376859286554
  74     0.015235419948663
  75    -0.0086621533952844
  76    -2.9338103227448e-15
  77      -0.1470682270699
  78      0.08521698851523
  79     1.94788027034e-15
  80     0.063403867041584
  81    -3.7280119550208e-16
  82    -6.951046282801e-17
  83    -0.019862658919136
  84       0.0343975854865
  85     -0.31387831790265
  86    -0.045181188283562
  87     -0.31399214246574
  88    -0.043870336062726
  89     -0.31399214246567
  90    -0.043870336062867
  91     -0.31387831790267
  92    -0.045181188283355
  93     -0.31399214246565
  94    -0.043870336062925
  95     -0.31399214246566
  96    -0.043870336062763
 Sym= A
 Ene=    0.8328217577
 Spin= Alpha
 Occup=    0.00000
   1    -3.3151567031115e-16
   2    1.6082605360438e-15
   3    -1.540429508567e-15
   4     1.07651588331e-14
   5    -6.184042621587e-16
   6    1.0062177856822e-10
   7    -2.8340552162832e-14
   8    -1.5835607505215e-15
   9    -9.7265729330337e-11
  10    3.1126200780051e-16
  11     0.041717411166375
  12    -8.8848843920357e-12
  13    -3.7235793241213e-16
  14    8.8544431708029e-16
  15    1.2714455575015e-15
  16    2.1874568980341e-15
  17    1.1870341672339e-15
  18    2.012525682999e-15
  19    4.1744841728455e-15
  20      0.53282984517874
  21    -6.6537383671495e-15
  22    9.9130655742109e-15
  23     -0.51497064324953
  24    -1.9501644814561e-15
  25    -0.030326704174115
  26    -0.041599877570251
  27    -3.5730929236989e-16
  28    -6.4576832818629e-16
  29    -7.3142215730416e-16
  30    2.3533922770574e-15
  31    1.0078642849171e-15
  32    2.5932855692622e-15
  33    9.3068217072708e-15
  34        0.532829845078
  35    1.6788490136187e-15
  36    1.0251142197436e-15
  37      -0.5149706431521
  38    6.6001460686705e-16
  39    -0.030326704160511
  40     0.041599877576044
  41    7.0681968736781e-16
  42    1.4890643098211e-16
  43    -4.0503254027822e-16
  44    4.7036411080595e-16
  45    1.0627706809396e-15
  46    -5.98435590637e-15
  47    9.2565364925177e-16
  48    -1.005319001404e-10
  49    1.5105275317031e-14
  50    1.7056706483424e-15
  51    9.7144119039253e-11
  52    4.2321593690223e-16
  53     0.041717411166362
  54    -8.8834647764434e-12
  55    -2.4146732627056e-16
  56    2.3128288731376e-16
  57    1.2298165422528e-15
  58    -3.0125453922411e-16
  59    -6.5341007649588e-15
  60    -1.6663475264074e-15
  61    -4.5145975636596e-15
  62     -0.53282984517863
  63    3.7127307318652e-15
  64    -7.7456424499428e-15
  65      0.51497064324937
  66    -1.5479298528658e-15
  67    -0.030326704174109
  68     -0.04159987757026
  69    -3.0846227833784e-16
  70    1.4286963379677e-16
  71    -8.1890592991588e-16
  72    8.7698046647451e-19
  73    -2.1790099292457e-15
  74    -1.2485023147023e-15
  75    -7.0810052643866e-15
  76     -0.53282984507818
  77    -3.9178688270375e-15
  78    -7.7729308441138e-15
  79      0.51497064315236
  80    1.0672661028027e-15
  81    -0.030326704160513
  82     0.041599877576044
  83    7.1889086797966e-16
  84    -6.9090498679571e-16
  85    -2.2832385358423e-17
  86    1.1115455526258e-15
  87    6.2750786159595e-15
  88    -1.0000744268176e-15
  89    -1.7194798655041e-15
  90    -5.2587288687959e-16
  91    -5.4658818794919e-16
  92    2.4180355111133e-16
  93    5.1528400099581e-15
  94    -1.775950431778e-15
  95    -2.7355006371495e-15
  96    5.2081039132363e-16
 Sym= A
 Ene=    0.8328290782
 Spin= Alpha
 Occup=    0.00000
   1    -2.4429937286821e-16
   2    4.5970371205292e-15
   3    -1.869450792541e-14
   4    -1.6107891591987e-14
   5    -2.2168208704799e-15
   6      -0.6152462108521
   7    2.130808318163e-14
   8    7.831901881537e-15
   9       0.5945952741035
  10    4.4287715171241e-16
  11    6.8183278449204e-12
  12     0.054342042160227
  13    -4.4761358778425e-16
  14    -7.5801725900947e-16
  15    -1.4982047202681e-15
  16    -5.4492912026321e-15
  17    1.8949967256715e-14
  18    -8.5205181734695e-17
  19    -5.082753903103e-15
  20     -0.30765243137787
  21    -1.0803608990352e-14
  22    -6.9788537269751e-15
  23      0.29736492083212
  24    2.1854020897355e-15
  25     0.041596579062554
  26    -0.017704324493326
  27    1.1931515214669e-15
  28    5.8862557711015e-16
  29    1.0879029072884e-15
  30    -6.4983862850308e-15
  31    -8.2068140521001e-15
  32    -5.0469247633537e-16
  33    -6.5865563775436e-15
  34      0.30765243155205
  35    1.2329400543889e-14
  36    -6.4192350886452e-15
  37     -0.29736492100043
  38    -8.424507428832e-16
  39    -0.041596579072473
  40    -0.017704324479729
  41    -3.9452136531583e-16
  42    6.5628607243595e-17
  43    -9.4260469565421e-16
  44    5.1428025828448e-15
  45    1.1071989471886e-14
  46    2.4288140643438e-16
  47    2.829639877612e-15
  48      0.61524621085219
  49    -8.067719224177e-15
  50    1.1646712269296e-14
  51     -0.59459527410364
  52    2.2193120312249e-16
  53    6.8200927510866e-12
  54     0.054342042160231
  55    -5.981136692172e-16
  56    1.0441068987672e-16
  57    1.6318226758943e-16
  58    1.549124314525e-14
  59    -2.9067410423022e-14
  60    -5.0393594383675e-15
  61    1.3163936986518e-14
  62      0.30765243137781
  63    -3.2052813209793e-15
  64    -9.7803576454442e-15
  65     -0.29736492083201
  66    -1.1458962408715e-15
  67     0.041596579062554
  68    -0.017704324493328
  69     8.03471301269e-16
  70    7.1236453516122e-17
  71    1.5259456186744e-15
  72    1.396573529601e-14
  73    -1.897293627494e-15
  74    -4.1138383635356e-15
  75    -1.8704184650223e-15
  76     -0.30765243155205
  77    1.2290923477267e-14
  78    4.4209711534893e-15
  79      0.29736492100044
  80    -4.0344796695291e-15
  81    -0.041596579072467
  82    -0.017704324479724
  83    -7.5589621877838e-16
  84    6.8119201532865e-16
  85    4.1696175645932e-16
  86    -1.486709152362e-15
  87    -5.281006801041e-15
  88    4.7761166953521e-15
  89    3.3283334803519e-15
  90    -9.2348867302364e-15
  91    -8.8817044531573e-16
  92    5.4083043141867e-15
  93    4.0866427100964e-15
  94    7.0903211533265e-16
  95    1.1156044138422e-14
  96    3.2550649457727e-15
 Sym= A
 Ene=    0.8504150035
 Spin= Alpha
 Occup=    0.00000
   1    -0.071919138528436
   2     0.016129325638862
   3      0.14845516268801
   4    6.1479622005591e-11
   5     -0.20522791174727
   6    3.7839330224927e-15
   7    -5.7032775911004e-11
   8      -0.1195879158515
   9    -2.3496510423089e-15
  10     0.092655632451109
  11    -8.349204169928e-17
  12    -2.2794304905666e-16
  13    -0.038152379117241
  14    3.0061165905751e-12
  15     0.035950617196524
  16    -0.0082486528468462
  17    -0.073857887103748
  18      0.31752101055034
  19     -0.34464043211838
  20    1.2861153488672e-15
  21     -0.16449280886751
  22      0.40476303143104
  23    -1.7873865823867e-15
  24     -0.04629495823028
  25    1.2526764840066e-16
  26    5.8576723169134e-16
  27    0.0099390718068099
  28     -0.02779481084542
  29     0.035950617182009
  30    -0.0082486528435056
  31    -0.073857887071375
  32      0.31752101054517
  33      0.34464043219183
  34    -4.8083767122328e-15
  35     -0.16449280892017
  36     -0.40476303146967
  37    4.0944586577885e-15
  38    -0.046294958211662
  39    7.3316214667304e-16
  40    -4.1212658769488e-17
  41    0.0099390718132136
  42     0.027794810840296
  43    -0.071919138528343
  44     0.016129325638559
  45      0.14845516268592
  46    -6.0938165934442e-11
  47      0.20522791174714
  48    -6.7814681637438e-15
  49    5.6786880421617e-11
  50      0.11958791584956
  51    7.6230066157237e-15
  52     0.092655632451077
  53    -2.6166704401205e-16
  54    -5.4079315551559e-16
  55    -0.038152379117241
  56    2.9907744446178e-12
  57     0.035950617196392
  58    -0.0082486528474413
  59    -0.073857887100334
  60     -0.31752101055007
  61      0.34464043211825
  62    1.2899301060919e-15
  63      0.16449280886894
  64        -0.40476303143
  65    -1.5611457946162e-15
  66    -0.046294958230108
  67    -2.2128808669431e-16
  68    4.8471853329768e-16
  69    0.0099390718068018
  70     -0.02779481084541
  71     0.035950617182063
  72    -0.0082486528444691
  73    -0.073857887072761
  74     -0.31752101054518
  75     -0.34464043219152
  76    7.0299677296436e-15
  77      0.16449280891853
  78       0.4047630314706
  79    -7.3646084296909e-15
  80    -0.046294958211583
  81    4.7466337814716e-16
  82    -1.8085503727925e-16
  83    0.0099390718132077
  84     0.027794810840281
  85     -0.25544430110302
  86      0.12184194871145
  87      0.12762976838329
  88    -0.061174089568648
  89      0.12762976833184
  90    -0.061174089543145
  91     -0.25544430110287
  92      0.12184194871053
  93      0.12762976838273
  94    -0.061174089567976
  95      0.12762976833168
  96    -0.061174089544125
 Sym= A
 Ene=    0.8504412537
 Spin= Alpha
 Occup=    0.00000
   1    -8.3593049452096e-12
   2    1.9339715734076e-12
   3    1.7788604172524e-11
   4     -0.52820017431794
   5    -2.3878644756924e-11
   6    1.4516902349031e-14
   7      0.49642027613776
   8    -1.4195497923973e-11
   9    -1.3779854131765e-14
  10    1.0754865805764e-11
  11    1.2952795227063e-15
  12    -1.5464510752749e-15
  13    -4.4322436346111e-12
  14    -0.025953641580656
  15      -0.0622771713595
  16     0.014120447565269
  17      0.12800811011992
  18    -0.021766887394156
  19     -0.31720382594158
  20    1.8714476209047e-14
  21      -0.2173320510965
  22      0.16746434651563
  23    -1.7930254675082e-14
  24     0.080228065814096
  25    -1.8356895347714e-15
  26    -6.8036334859709e-17
  27     0.027751020557226
  28     0.022124362612477
  29     0.062277171367833
  30    -0.014120447566965
  31     -0.12800811013716
  32     0.021766887467701
  33     -0.31720382586173
  34    5.4579194491806e-15
  35      0.21733205105823
  36      0.16746434642195
  37    -3.2760809458016e-15
  38    -0.080228065824862
  39    -2.6293818789648e-16
  40    7.3895006261241e-16
  41    -0.027751020554909
  42     0.022124362618915
  43    -8.2908674214199e-12
  44    1.9233092563955e-12
  45    1.6286467418357e-11
  46      0.52820017431805
  47    2.373566661433e-11
  48    -7.6141154381047e-15
  49     -0.49642027613785
  50    1.3165225494863e-11
  51    7.8393417598401e-15
  52    1.0696615888833e-11
  53    9.1199161593518e-16
  54    -6.6388400828208e-16
  55    -4.4132041166839e-12
  56    -0.025953641580655
  57    -0.062277171359562
  58      0.01412044756533
  59      0.12800811012139
  60     0.021766887394314
  61      0.31720382594144
  62    -9.6724190855853e-15
  63      0.21733205109739
  64     -0.16746434651489
  65    9.179095122643e-15
  66      0.08022806581414
  67    -9.18369990742e-16
  68    -4.7540668871227e-16
  69     0.027751020557203
  70     0.022124362612471
  71     0.062277171367879
  72    -0.014120447567372
  73     -0.12800811013826
  74     -0.02176688746782
  75       0.3172038258617
  76    -2.7756146940016e-15
  77     -0.21733205105919
  78     -0.16746434642128
  79    4.9069720211671e-15
  80    -0.080228065824846
  81    3.6779924076071e-16
  82    1.0976557610723e-15
  83    -0.027751020554891
  84     0.022124362618917
  85    -2.964142575259e-11
  86    1.4248406942307e-11
  87      -0.2212503876948
  88      0.10614045115143
  89       0.2212503877245
  90     -0.10614045116552
  91    -2.9478296720235e-11
  92    1.3835733227072e-11
  93       -0.221250387695
  94        0.106140451152
  95      0.22125038772449
  96      -0.1061404511661
 Sym= A
 Ene=    0.8551351572
 Spin= Alpha
 Occup=    0.00000
   1    -0.035597465848925
   2     -0.60751495796522
   3      0.70554285328535
   4    -4.5220986148186e-10
   5     0.012270665637008
   6    6.5800324916471e-16
   7    3.0560633676194e-10
   8     0.018935086895695
   9    -6.8754782116291e-16
  10      0.10958491195548
  11    -4.5855970483567e-17
  12    1.5050506783825e-16
  13     -0.01558649764177
  14    -2.4848502621002e-11
  15    -0.017738928679936
  16      -0.3038243574746
  17      0.35135474714906
  18      0.19463899761883
  19     -0.32443330127787
  20    -4.5192575833026e-16
  21     -0.11871366189212
  22      0.22562933357784
  23    1.2312888987919e-15
  24     0.054770152216095
  25    1.9732863579015e-16
  26    1.7707363397484e-17
  27     0.021919249282253
  28    -0.0036577364126035
  29     0.017738928616194
  30      0.30382435638534
  31     -0.35135474588575
  32     -0.19463899782573
  33     -0.32443330168025
  34    1.1296073236913e-15
  35      0.11871366207354
  36      0.22562933382367
  37    -2.0372647246072e-15
  38    -0.054770152019675
  39    2.6367183914392e-16
  40    -4.6215711778458e-18
  41    -0.021919249289824
  42    -0.0036577364493213
  43     0.035597465848919
  44      0.60751495796523
  45     -0.70554285328525
  46    -4.5256921967958e-10
  47     0.012270665637085
  48    -6.0387159540884e-18
  49    3.0327150271787e-10
  50     0.018935086895608
  51    4.5752333555606e-16
  52     -0.10958491195548
  53    3.5616570701692e-17
  54    -3.5727084310617e-17
  55     0.015586497641768
  56    2.4887612866791e-11
  57     0.017738928679953
  58      0.30382435747472
  59     -0.35135474714922
  60      0.19463899761863
  61     -0.32443330127777
  62    -1.0375624391965e-15
  63      -0.1187136618931
  64      0.22562933358014
  65    1.0627148617671e-15
  66    -0.054770152216135
  67    -4.9724634286439e-17
  68    -3.6450441793894e-17
  69     -0.02191924928224
  70    0.0036577364125826
  71    -0.017738928616205
  72     -0.30382435638529
  73      0.35135474588566
  74     -0.19463899782554
  75     -0.32443330168021
  76    -2.0416946734403e-17
  77      0.11871366207455
  78      0.22562933382597
  79    2.9247781601008e-17
  80      0.05477015201968
  81    2.0806971655018e-17
  82    9.9727733092886e-17
  83     0.021919249289823
  84    0.0036577364493122
  85     -0.28267784158376
  86     -0.11788598166924
  87     -0.14128841877145
  88    -0.058996105984289
  89      0.14128841826495
  90     0.058996105773304
  91      0.28267784158377
  92      0.11788598166916
  93      0.14128841877152
  94      0.05899610598447
  95     -0.14128841826498
  96     -0.05899610577341
 Sym= A
 Ene=    0.8551446588
 Spin= Alpha
 Occup=    0.00000
   1    3.6768529231288e-11
   2    6.290341301352e-10
   3    -7.2974221448955e-10
   4     -0.43706322271501
   5    -1.2979024677802e-11
   6    1.1890819787181e-14
   7      0.29419286801618
   8    -1.9946011048263e-11
   9    -9.9725726420659e-15
  10    -1.133498805896e-10
  11    4.4206153654492e-17
  12    -1.2103478282697e-15
  13    1.6108825428088e-11
  14    -0.024028070271701
  15    -0.030794144463178
  16     -0.52614562502835
  17      0.61016274643615
  18    -0.099915334443014
  19      0.19440836761457
  20    8.0470237248423e-15
  21     0.087601187138837
  22     -0.11881402297718
  23    -8.1969721899727e-15
  24     0.094891212985247
  25    -7.0513286915347e-16
  26    1.5807344065587e-17
  27    -0.0036627509387492
  28     0.017737932766551
  29    -0.030794144499957
  30     -0.52614562565705
  31      0.61016274716456
  32    -0.099915334040063
  33     -0.19440836694284
  34    -3.3057965865084e-15
  35     0.087601186892231
  36      0.11881402251088
  37    4.4038689524276e-15
  38     0.094891213098658
  39    8.5691974739459e-16
  40    6.2019854997793e-16
  41    -0.0036627508933667
  42    -0.017737932758969
  43    -3.6862234803344e-11
  44    -6.2884037198848e-10
  45    7.2946061575703e-10
  46     -0.43706322271478
  47    -1.2604148102865e-11
  48    -8.8889786381862e-15
  49      0.29419286801643
  50    -2.02036487743e-11
  51    7.0852248846845e-15
  52    1.1347517806832e-10
  53    -1.1048015392768e-16
  54    -1.2598078020827e-15
  55    -1.6175821837971e-11
  56     0.024028070271673
  57     0.030794144463204
  58      0.52614562502846
  59     -0.61016274643637
  60    -0.099915334443431
  61      0.19440836761506
  62    -9.8997101358687e-15
  63     0.087601187139573
  64     -0.11881402297814
  65    1.1975558024515e-14
  66    -0.094891212985294
  67    -9.6121717556608e-16
  68    1.2916294240577e-16
  69    0.0036627509387996
  70    -0.017737932766584
  71     0.030794144500027
  72      0.52614562565685
  73     -0.61016274716414
  74    -0.099915334040524
  75     -0.19440836694323
  76    6.4830546976905e-15
  77     0.087601186892312
  78      0.11881402251085
  79    -8.2693448452201e-15
  80    -0.094891213098764
  81    4.4479348522698e-16
  82    5.2400865843728e-16
  83    0.0036627508933838
  84     0.017737932759025
  85    2.9235319223826e-10
  86    1.2229299406765e-10
  87     -0.24468229576042
  88     -0.10187267470691
  89     -0.24468229605301
  90     -0.10187267482847
  91    -2.9264250467939e-10
  92    -1.2230886206496e-10
  93      0.24468229576058
  94      0.10187267470696
  95      0.24468229605327
  96      0.10187267482836
 Sym= A
 Ene=    0.9139717769
 Spin= Alpha
 Occup=    0.00000
   1    1.6605148316454e-16
   2    1.2245881234676e-15
   3    -8.1137472850298e-15
   4    -4.8524152229371e-16
   5    -4.4177694161689e-16
   6    1.2391132153449e-10
   7    -2.4880933670289e-15
   8    5.0334692218092e-15
   9    -1.893709506298e-10
  10    -2.0879823782651e-16
  11    -0.043814325298793
  12    -2.2066161624275e-12
  13    -4.144268862174e-17
  14    -3.9553043844581e-16
  15    -5.8892630675773e-17
  16    3.1960088897854e-15
  17    -1.8448175910304e-15
  18    -8.2975694500979e-16
  19    -8.8654829870621e-16
  20     -0.56716053194849
  21    -4.8404952790229e-15
  22    4.0545687307125e-15
  23      0.86698631477975
  24    -1.4797493190581e-16
  25     0.019690951018792
  26    -0.013928248185607
  27    2.5048279549042e-16
  28    4.9276784897438e-17
  29    2.0002243127237e-16
  30    1.3573895695296e-15
  31    -6.1252762517773e-15
  32    8.2867772047911e-16
  33    -4.1800386165952e-16
  34      0.56716053182468
  35    6.4377557946668e-15
  36    5.495255367592e-15
  37     -0.86698631459042
  38    -3.4299726915735e-16
  39    -0.019690951024072
  40    -0.013928248199138
  41    -2.4713506167789e-16
  42    1.8698602101776e-16
  43    -1.9181490115458e-16
  44    9.4744491343763e-17
  45    6.6694450278545e-15
  46    2.5400881384761e-15
  47    2.2625186533324e-16
  48    1.2397339792944e-10
  49    4.7100094374032e-15
  50    4.6423203250354e-15
  51    -1.8955070401528e-10
  52    -2.29235463386e-17
  53     0.043814325298803
  54    2.2008101630378e-12
  55    -9.3068792915084e-17
  56    -1.5898446706673e-16
  57    3.6222981137338e-17
  58    -1.506056733333e-15
  59    -5.1900026288059e-15
  60    1.4211389563968e-15
  61    1.8810356782046e-15
  62     -0.56716053194874
  63    -3.4791619771622e-15
  64    -1.1905972450601e-14
  65      0.86698631478011
  66    3.9940890132771e-16
  67    -0.019690951018803
  68     0.013928248185599
  69    3.5197606062832e-16
  70    4.5004471516767e-16
  71    -1.7423936505363e-16
  72    -1.6193221382549e-15
  73    1.3152629419417e-14
  74    -5.3340971604948e-16
  75    1.4078151697183e-15
  76      0.56716053182467
  77    4.6780036060672e-15
  78    -9.3928779501053e-15
  79     -0.86698631459053
  80    -2.0789478644977e-16
  81     0.019690951024063
  82      0.01392824819915
  83    -2.1532480594363e-16
  84    -1.0243703395035e-16
  85    1.1377010274019e-15
  86    -2.0182938748062e-15
  87    6.7428981726374e-16
  88    1.3558079434616e-15
  89    3.5177818171076e-16
  90    -2.7518479811025e-16
  91    -2.846743697358e-16
  92    1.3484724691234e-15
  93    3.8866864087065e-16
  94    -4.9701796719546e-15
  95    1.3663056679818e-16
  96    2.7017039049913e-15
 Sym= A
 Ene=    0.9139811176
 Spin= Alpha
 Occup=    0.00000
   1    2.4864675981733e-16
   2    7.0309744786333e-16
   3    -1.9653595471461e-15
   4    8.4190357751448e-16
   5    7.4577865783135e-16
   6     -0.65491109079843
   7    -1.6259337390361e-14
   8    -1.3615791546273e-15
   9       1.0011155081209
  10    -2.2451198959316e-16
  11    -8.2880976365773e-12
  12     0.011646815864449
  13    7.6191435607867e-17
  14    2.9037058304675e-16
  15    -1.1464978606152e-16
  16    1.0048314062761e-16
  17    2.0281710953217e-15
  18    -8.804073057655e-16
  19    7.0117586214765e-16
  20      0.32743444384375
  21    -6.4303961537995e-15
  22    1.0364970760531e-14
  23     -0.50054817879799
  24    1.5027097395942e-16
  25     0.013926300602871
  26    -0.035773604343266
  27    2.0583385374322e-16
  28    -1.8783695128662e-16
  29    -1.4481590883947e-16
  30    -1.0029751475632e-15
  31    7.3909859970006e-15
  32    -2.1077149057452e-18
  33    -2.2821692351995e-15
  34      0.32743444405835
  35    2.3725993991564e-15
  36    1.0160644801082e-14
  37     -0.50054817912598
  38    6.6088078187448e-17
  39      0.01392630059541
  40     0.035773604337995
  41    -1.0246058752194e-16
  42    1.4360912518661e-16
  43    1.7460439238576e-16
  44    1.5528531170824e-15
  45    -2.2783327126955e-15
  46    5.9032694252298e-16
  47    -2.8257513858691e-16
  48     -0.65491109079825
  49    3.7927390798319e-15
  50    -3.7210216142144e-16
  51       1.0011155081206
  52    -5.4573193517962e-16
  53    8.292078385402e-12
  54    -0.011646815864446
  55    1.5388376769114e-16
  56    -5.2758369814666e-17
  57    4.2203678870985e-17
  58    3.3412673942865e-15
  59    -9.4473914590466e-15
  60    1.8226503330757e-15
  61    3.9299791996246e-16
  62      0.32743444384362
  63    1.9022487230754e-15
  64    -8.7732650091544e-15
  65     -0.50054817879775
  66    -1.308473589279e-16
  67    -0.013926300602864
  68     0.035773604343259
  69    3.7525305669401e-16
  70    4.9579101367871e-16
  71    -5.129845745354e-17
  72    1.418626801831e-15
  73    -2.2566732206444e-15
  74    1.6145075457655e-15
  75    7.1302229258179e-16
  76      0.32743444405835
  77    -7.8422166114373e-15
  78    -1.2377272919371e-14
  79     -0.50054817912608
  80    -2.0451509099436e-16
  81     -0.01392630059542
  82     -0.03577360433799
  83    -4.3468610128054e-16
  84    -4.424960967522e-16
  85    1.1493870131993e-15
  86    1.0918757307759e-15
  87    -1.0429232246678e-15
  88    1.6466059102242e-15
  89    -1.4553003314319e-15
  90    1.7842114373391e-15
  91    1.404608640894e-15
  92    -5.4190575593351e-16
  93    1.9432088795701e-15
  94    -1.8191046721471e-15
  95    1.2645756268666e-15
  96    -1.43222857614e-15
 Sym= A
 Ene=    0.9953396251
 Spin= Alpha
 Occup=    0.00000
   1    -2.8287153780819e-17
   2    3.2940810661919e-16
   3    -3.1668798234161e-15
   4    4.0206628933328e-16
   5    -7.0149566550819e-16
   6      0.47851045471433
   7    6.3445852642353e-17
   8    2.5276438863628e-15
   9      -1.1071846862112
  10    -7.2291031261114e-17
  11    -4.7186782380831e-15
  12     0.009053199109262
  13    -1.1569059984893e-16
  14    -7.39790585302e-18
  15    -1.178355295359e-16
  16    -2.1051501564675e-15
  17    7.9727070971109e-15
  18    6.6917744350861e-16
  19    4.4019230553644e-16
  20     -0.47847134152434
  21    -9.4736314757702e-16
  22    -3.3232841292678e-15
  23       1.1071577281328
  24    2.0601753947791e-16
  25    -0.0078421157336753
  26    -0.0045268719591778
  27    -2.019223454956e-16
  28    -1.2990748235296e-16
  29    -1.6626352522759e-16
  30    -1.81480377122e-15
  31    5.0630686960646e-15
  32    3.1165368416531e-16
  33    4.8416877360819e-16
  34      0.47847134152444
  35    -3.1063615726194e-15
  36    -8.0979306978544e-15
  37       -1.107157728133
  38    5.1430839722189e-16
  39    0.0078421157336775
  40    -0.0045268719591739
  41    -8.6958040093703e-17
  42    4.4354130848316e-16
  43    -1.0886060608743e-17
  44    -9.3226321341111e-17
  45    3.3615702623474e-15
  46    -2.8508825266976e-16
  47    -2.8367182913349e-16
  48     -0.47851045471443
  49    -1.1380132474457e-14
  50    2.4907174814824e-15
  51       1.1071846862114
  52    6.8179541278415e-17
  53    2.9375447002503e-15
  54    0.0090531991092595
  55    -1.5193969558898e-16
  56    -2.6967609831884e-16
  57    3.0218979431325e-16
  58    4.1109597507148e-16
  59    -5.5621370746511e-15
  60    1.4924274376802e-15
  61    6.1379807128558e-16
  62      0.47847134152432
  63    -9.8370220471718e-15
  64    5.9843497812388e-15
  65      -1.1071577281328
  66    -4.4010808604836e-16
  67    -0.0078421157336772
  68    -0.0045268719591705
  69    2.0467068667635e-17
  70    3.7189966581631e-16
  71    1.053952346761e-16
  72    2.473222140164e-15
  73    -5.4309986007877e-15
  74    -5.0011354672818e-16
  75    -4.5266485248723e-16
  76     -0.47847134152423
  77    4.8706517007484e-15
  78    3.0186718665761e-15
  79       1.1071577281327
  80    -3.2001710497839e-16
  81    0.0078421157336795
  82    -0.004526871959176
  83    3.5673113450075e-16
  84    -3.6593956422133e-16
  85    5.0036601032147e-16
  86    -1.5278134741048e-15
  87    -8.1149133905636e-16
  88    1.305086593331e-15
  89    -1.6210831811531e-15
  90    9.3077380335456e-17
  91    -4.8910299984552e-16
  92    1.0205346823768e-15
  93    1.7410493608776e-15
  94    -3.8394568693989e-15
  95    1.0649894286551e-15
  96    7.4866493752772e-16
 Sym= A
 Ene=     1.115515969
 Spin= Alpha
 Occup=    0.00000
   1    -4.4570351442448e-12
   2    1.1947311723205e-11
   3    8.2170207838743e-11
   4    -0.032127541844968
   5    7.5775467681989e-11
   6    -5.515732159857e-16
   7      -0.1350225873902
   8    -2.8451823970492e-10
   9    -2.5312544270992e-16
  10    1.894591960955e-12
  11    8.9358465781276e-17
  12    3.6437151503869e-16
  13    7.3453187976469e-12
  14     0.085353633118989
  15    -0.031969266824824
  16      0.09628500439442
  17      0.71494996395934
  18      0.50819662578621
  19      0.27495458391014
  20    -1.5463896272807e-15
  21      -1.9193340630144
  22      -1.1849505409822
  23    2.4637018365648e-15
  24    0.0091043668028053
  25    4.218330963567e-16
  26    3.0967603822193e-16
  27    -0.061566850478188
  28    -0.021292330137597
  29     0.031969266829702
  30     -0.09628500440947
  31     -0.71494996406567
  32     -0.50819662585898
  33      0.27495458395818
  34    2.1941009474958e-16
  35       1.9193340633167
  36      -1.1849505411122
  37    -1.9142065620856e-15
  38    -0.0091043668048768
  39    2.2184687596285e-16
  40    -1.5920637738087e-16
  41     0.061566850466968
  42    -0.021292330154656
  43    -4.381879283265e-12
  44    1.3516192092887e-11
  45    1.1797249877143e-10
  46     0.032127541841961
  47    -8.3384368287022e-11
  48    -1.7324400476533e-15
  49      0.13502258741117
  50    3.3763548473972e-10
  51    2.6560755320898e-15
  52    6.4034206526624e-13
  53    4.3575629746269e-16
  54    -1.4000914648653e-16
  55    6.2757331519419e-12
  56      0.08535363312001
  57    -0.031969266825151
  58      0.09628500439632
  59      0.71494996391648
  60     -0.50819662578496
  61      -0.2749545839058
  62    -1.0686903349919e-15
  63       1.9193340629868
  64       1.1849505409426
  65    4.0751401953022e-16
  66    0.0091043668044968
  67    -3.5754079967911e-16
  68    4.2397599077256e-16
  69     -0.06156685047839
  70    -0.021292330139793
  71     0.031969266829117
  72    -0.096285004407072
  73     -0.71494996400985
  74      0.50819662584349
  75     -0.27495458394905
  76    -4.8877331262616e-16
  77      -1.9193340632516
  78       1.1849505410752
  79    4.4363293428851e-16
  80    -0.0091043668049287
  81    -1.1449400593963e-16
  82    -3.872626723202e-16
  83     0.061566850465714
  84    -0.021292330152268
  85    -3.9907574646779e-11
  86    1.8939527984698e-10
  87      -0.2807467701715
  88       1.4452916992139
  89      0.28074677021657
  90      -1.4452916994304
  91    -3.7649916049114e-11
  92    2.0900130122329e-10
  93      -0.2807467701767
  94       1.4452916992048
  95      0.28074677020922
  96      -1.4452916993869
 Sym= A
 Ene=     1.115657564
 Spin= Alpha
 Occup=    0.00000
   1     0.036943647362967
   2     -0.11041898654735
   3     -0.82625874563292
   4    -1.6527574648839e-12
   5     -0.66635604486132
   6    -4.4977268418566e-16
   7    -2.9476706888811e-11
   8       2.6038386138663
   9    4.0130747804663e-16
  10    -0.010586709838883
  11    -3.1328305587029e-17
  12    -1.099780201826e-16
  13    -0.056763133779832
  14    1.0764819387187e-11
  15    -0.018486047025593
  16     0.055946168824293
  17      0.41178823355695
  18      0.27517606319983
  19      0.19136678300171
  20    -8.7739201134596e-17
  21      -1.1861926642164
  22     -0.55137369093175
  23    9.7116315640668e-18
  24    0.0053137572059593
  25    1.6529315198122e-16
  26    5.1614208256057e-17
  27     0.049810827436531
  28    -0.061643505144189
  29    -0.018486047018153
  30     0.055946168801314
  31      0.41178823334403
  32      0.27517606307204
  33     -0.19136678293582
  34    1.424429549763e-16
  35      -1.1861926637035
  36      0.55137369064059
  37    -2.1576955610586e-16
  38    0.0053137572053072
  39    -3.3718336055818e-17
  40    5.9049439690687e-17
  41     0.049810827449587
  42     0.061643505139946
  43     0.036943647362348
  44     -0.11041898654456
  45     -0.82625874557552
  46    5.7809892814285e-12
  47      0.66635604484284
  48    2.9338700568863e-17
  49    3.0396313730165e-12
  50      -2.6038386137875
  51    1.8969793685693e-17
  52    -0.010586709838974
  53    1.6217316330761e-17
  54    5.2195658081134e-17
  55    -0.056763133777161
  56    9.6134334716826e-12
  57    -0.018486047025408
  58     0.055946168825221
  59        0.411788233498
  60      -0.2751760631876
  61     -0.19136678300024
  62    2.3248471276859e-17
  63       1.1861926641452
  64      0.55137369092816
  65    4.9660969553715e-17
  66    0.0053137572067973
  67    1.0973457545508e-17
  68    -1.1417324910252e-17
  69     0.049810827435581
  70    -0.061643505142816
  71     -0.01848604701761
  72     0.055946168801024
  73      0.41178823337342
  74     -0.27517606307248
  75      0.19136678293524
  76    -1.3036349531866e-17
  77       1.1861926637412
  78     -0.55137369065532
  79    -1.5760315787131e-16
  80    0.0053137572031096
  81    2.0990911307397e-17
  82    1.8344177421804e-17
  83     0.049810827451772
  84     0.061643505136865
  85      0.32390650457317
  86      -1.6689060884097
  87      -0.1623616072997
  88      0.83570784104057
  89     -0.16236160723653
  90       0.8357078406799
  91      0.32390650456572
  92      -1.6689060883644
  93     -0.16236160729785
  94      0.83570784101216
  95     -0.16236160722713
  96      0.83570784068237
 Sym= A
 Ene=     1.121053594
 Spin= Alpha
 Occup=    0.00000
   1    -1.2918978872909e-14
   2    5.264810754935e-13
   3    -1.1651371170246e-11
   4     -0.15564797203178
   5    -2.0425089965845e-12
   6    -2.3913402420102e-16
   7       1.1320981279969
   8    2.0981903992722e-11
   9    -3.1537040454068e-16
  10    6.7423440495679e-13
  11    -2.1989546621197e-16
  12    -2.974692277923e-16
  13    1.1698185822806e-12
  14    -0.055823762149441
  15     0.027274285149838
  16     -0.16143101870764
  17     -0.25798573954203
  18     -0.42169180963116
  19      -0.1536861112104
  20    5.5300430192324e-16
  21       1.0997940789889
  22    -0.018349775168633
  23    3.0006004428712e-16
  24    -0.048756222040071
  25    -7.3420070404652e-17
  26    -1.8601330559364e-16
  27     0.044011285746549
  28       0.1321478635112
  29     0.027274285149639
  30     -0.16143101870759
  31     -0.25798573955508
  32      -0.4216918096286
  33      0.15368611121358
  34    2.7633100032492e-15
  35        1.099794078976
  36     0.018349775149857
  37    -3.7978481601429e-15
  38    -0.048756222040005
  39    6.131710864801e-17
  40    1.1437514104813e-16
  41     0.044011285747272
  42     -0.13214786351157
  43    5.4692094809355e-13
  44    -2.0476325657607e-12
  45    -5.9431209470172e-13
  46     -0.15564797203155
  47    7.516270295115e-12
  48    -3.1434158064079e-15
  49       1.1320981279921
  50    -1.6196747362085e-11
  51    4.6317097304479e-15
  52    -8.2884372179757e-13
  53    -1.075007122732e-16
  54    -1.5983335605364e-16
  55    -2.0200834643792e-12
  56     0.055823762147884
  57    -0.027274285149564
  58      0.16143101870662
  59      0.25798573953638
  60     -0.42169180962624
  61     -0.15368611120905
  62    5.3968621394602e-16
  63       1.0997940789728
  64    -0.018349775178689
  65    -1.9776258847508e-15
  66     0.048756222039987
  67    2.9593862194224e-16
  68    -6.6374249796702e-18
  69    -0.044011285744914
  70     -0.13214786351165
  71    -0.027274285150443
  72      0.16143101870991
  73      0.25798573957327
  74     -0.42169180964138
  75      0.15368611122029
  76    -5.8755656933557e-17
  77       1.0997940790261
  78     0.018349775124487
  79    7.5953743364779e-16
  80     0.048756222040272
  81    6.7358855898546e-17
  82    2.9846094353137e-16
  83    -0.044011285747476
  84       0.1321478635129
  85    -1.7241204549742e-12
  86    -5.9736746392801e-12
  87      0.36885900642031
  88      -1.0408687786168
  89      0.36885900641963
  90      -1.0408687786146
  91    6.5113580813389e-12
  92    -1.7982628881634e-11
  93      -0.3688590064178
  94       1.0408687786044
  95     -0.36885900642692
  96       1.0408687786508
 Sym= A
 Ene=     1.121133676
 Spin= Alpha
 Occup=    0.00000
   1      0.03145962903122
   2     -0.18547232030949
   3     -0.27988595065348
   4    -1.2783092953047e-12
   5     -0.50507635953447
   6    -1.7862029314715e-16
   7    9.0674817203273e-12
   8       1.0602485284299
   9    6.7129495585467e-17
  10    -0.056741118812294
  11    8.5364714467713e-17
  12    -1.7758865469484e-16
  13     -0.15772253195063
  14    -2.5284610173302e-13
  15     0.015751330428542
  16    -0.093474003086577
  17     -0.17157350478326
  18     -0.15766847587645
  19      -0.2471853631192
  20    3.2420659636787e-16
  21    0.0042428864914983
  22        1.137364851433
  23    -8.7994740374731e-17
  24    -0.027646579938724
  25    -2.4060202406361e-17
  26    1.0002910904361e-16
  27     0.081316943659222
  28     0.044026551706864
  29    -0.015751330427697
  30     0.093474003082039
  31      0.17157350477296
  32      0.15766847586362
  33     -0.24718536311292
  34    2.4288417888271e-16
  35    -0.0042428864505326
  36       1.1373648514236
  37    -3.7154080185129e-16
  38     0.027646579937678
  39    -1.4235915092522e-18
  40    -7.3991437537129e-17
  41    -0.081316943659177
  42     0.044026551703303
  43    -0.031459629031843
  44       0.1854723203118
  45      0.27988595066619
  46    -1.5431008235878e-12
  47     -0.50507635954579
  48    1.1557833153222e-16
  49    1.1848788091562e-11
  50       1.0602485284735
  51    -1.1844335059973e-16
  52     0.056741118812508
  53    -2.7290708545884e-18
  54    -2.1654949840744e-20
  55       0.1577225319516
  56    7.9531826223535e-13
  57    -0.015751330428394
  58     0.093474003085396
  59       0.1715735047822
  60     -0.15766847587452
  61     -0.24718536311716
  62    2.4311410637029e-17
  63    0.0042428864822783
  64       1.1373648514288
  65    7.6710684360788e-17
  66     0.027646579938655
  67    2.1595865405259e-17
  68    1.5292317811237e-18
  69    -0.081316943660338
  70    -0.044026551706001
  71     0.015751330428171
  72    -0.093474003083047
  73     -0.17157350478487
  74      0.15766847587092
  75     -0.24718536311721
  76    1.3041210934824e-16
  77    -0.004242886480759
  78       1.1373648514378
  79    -1.9043050226214e-16
  80    -0.027646579937808
  81    5.2107233499913e-17
  82    -9.9288527161913e-18
  83     0.081316943658668
  84    -0.044026551704486
  85      0.42576226196561
  86      -1.1890263607231
  87      0.21335678111094
  88     -0.61296589523616
  89     -0.21335678110098
  90      0.61296589520165
  91     -0.42576226197123
  92       1.1890263607514
  93     -0.21335678110962
  94      0.61296589522927
  95      0.21335678110526
  96      -0.6129658952229
 Sym= A
 Ene=     1.128649317
 Spin= Alpha
 Occup=    0.00000
   1    0.0052658690883872
   2    -0.066272715459373
   3      -2.4414267081389
   4    -1.032060610879e-13
   5     -0.54737871482468
   6    -7.1638216927151e-16
   7    3.1613273218348e-12
   8       3.2225721749927
   9    1.0681225827695e-15
  10     0.051566377112417
  11    -1.6391437186888e-16
  12    1.7994638941581e-16
  13    0.0048113853911063
  14    -5.9251899849244e-13
  15    -0.0048458266910646
  16     0.064937261552709
  17       2.4360452725892
  18      0.46871771301287
  19      0.26889874993506
  20    1.1396005420993e-15
  21      -2.7822772445003
  22       -1.595468867752
  23    -1.6122185703697e-15
  24    -0.052451540125678
  25    -8.0767150875738e-17
  26    2.3668930788761e-18
  27    0.0039960300243319
  28    0.0059106375722812
  29    0.0048458266911723
  30    -0.064937261547502
  31      -2.4360452726164
  32     -0.46871771301457
  33       0.2688987499352
  34    -9.2592711276583e-16
  35       2.7822772445159
  36      -1.5954688677517
  37    1.3768150900407e-15
  38     0.052451540125945
  39    2.1712580666211e-16
  40    2.9752036530422e-16
  41    -0.0039960300256392
  42    0.0059106375714922
  43    -0.0052658690890781
  44     0.066272715459907
  45       2.4414267081589
  46    -1.8594712738498e-12
  47     -0.54737871483665
  48    2.8731497447129e-16
  49    6.2803255519053e-12
  50       3.2225721750396
  51    -6.7720510967081e-16
  52    -0.051566377112218
  53    -1.6326822321886e-16
  54    -1.0173746097282e-16
  55    -0.0048113853899152
  56    -4.8012345569602e-13
  57     0.004845826691952
  58    -0.064937261556257
  59      -2.4360452726069
  60      0.46871771302631
  61       0.2688987499442
  62    -2.6599271616867e-16
  63      -2.7822772445527
  64      -1.5954688677847
  65    5.7950255645295e-16
  66     0.052451540125348
  67    9.1490401294808e-18
  68    -2.8343473042318e-17
  69    -0.0039960300241199
  70    -0.005910637570793
  71    -0.0048458266913712
  72     0.064937261550162
  73       2.4360452726148
  74     -0.46871771301749
  75      0.26889874993775
  76    2.3027190561345e-16
  77       2.7822772445238
  78      -1.5954688677666
  79    -5.8252008281352e-16
  80    -0.052451540125826
  81    -4.7939825050373e-17
  82    4.0484985065466e-17
  83    0.0039960300235017
  84    -0.0059106375724907
  85     0.022423596976104
  86      -1.4012898133236
  87    -0.016454607838777
  88       1.3841241588615
  89     0.016454607840044
  90      -1.3841241588655
  91    -0.022423596982568
  92       1.4012898133534
  93      0.01645460784712
  94      -1.3841241589023
  95    -0.016454607841673
  96       1.3841241588756
 Sym= A
 Ene=     1.191006989
 Spin= Alpha
 Occup=    0.00000
   1    0.0040510920682171
   2     -0.89590343828154
   3       3.5359279486337
   4    5.4503605653719e-10
   5     -0.17862145193508
   6    5.8066776857443e-16
   7    -3.0158678822864e-09
   8       0.3844455974935
   9    -6.4582780552132e-16
  10      0.01516608363631
  11    -1.375988469583e-16
  12    -3.5291422262637e-18
  13     0.077749458634124
  14    9.7978094971323e-11
  15    0.0020115790943458
  16     -0.44768484880779
  17       1.7709754500989
  18     -0.29496053495067
  19      0.33351788071062
  20    -5.1866029740049e-16
  21       1.3696989877858
  22      -1.9974036110395
  23    6.3123075315597e-16
  24    0.0075319454009969
  25    -2.5644616843497e-16
  26    -1.379203529973e-16
  27    -0.087342428295981
  28    0.0055411011887935
  29    -0.002011579086863
  30      0.44768484712825
  31      -1.7709754434677
  32      0.29496053493482
  33      0.33351788134948
  34    -2.1674076860675e-17
  35      -1.3696989886797
  36      -1.9974036140078
  37    -1.0242156984049e-16
  38    -0.0075319453724791
  39    1.4286449982551e-16
  40    6.5772077045353e-17
  41     0.087342428308013
  42    0.0055411013640871
  43    -0.0040510920681624
  44      0.89590343827997
  45      -3.5359279486314
  46    5.4518128544817e-10
  47     -0.17862145193289
  48    -2.0839747318089e-17
  49    -3.0177279640511e-09
  50      0.38444559748881
  51    1.9999559959577e-16
  52    -0.015166083636432
  53    -4.5584329753069e-17
  54    -3.7067487579944e-17
  55    -0.077749458634441
  56    -9.8171927311568e-11
  57    -0.002011579094275
  58      0.44768484880675
  59      -1.7709754500985
  60     -0.29496053494862
  61      0.33351788071182
  62    1.5875908685052e-16
  63       1.3696989877812
  64      -1.9974036110419
  65    -3.4862731151156e-16
  66    -0.0075319454011153
  67    1.9402800542566e-17
  68    -4.7953112498136e-17
  69     0.087342428296298
  70    -0.0055411011885092
  71    0.0020115790867833
  72      -0.4476848471297
  73       1.7709754434741
  74       0.2949605349348
  75      0.33351788134944
  76    -2.4597211118175e-16
  77      -1.3696989886761
  78      -1.9974036140091
  79    5.1181759755117e-16
  80    0.0075319453724294
  81    4.5325440602686e-17
  82    3.4017514870804e-17
  83    -0.087342428308021
  84    -0.0055411013641863
  85    -0.034251819362654
  86     -0.58771392140833
  87    -0.017155828778625
  88     -0.29146148642932
  89     0.017155828714657
  90      0.29146148533335
  91     0.034251819363998
  92      0.58771392140353
  93     0.017155828780196
  94      0.29146148642442
  95    -0.017155828714738
  96      -0.2914614853324
 Sym= A
 Ene=      1.19103584
 Spin= Alpha
 Occup=    0.00000
   1    -4.3930134906086e-12
   2    9.7040407453992e-10
   3    -3.8345169279005e-09
   4      0.50387518733371
   5    1.9269169750531e-10
   6    3.6494861441861e-16
   7      -2.7887085078459
   8    -4.1013855284048e-10
   9    -1.0881952431716e-15
  10    -1.6246242547307e-11
  11    6.3903032618758e-17
  12    4.1578790713834e-16
  13    -8.4061564404204e-11
  14     0.090649823805606
  15     0.003470348925899
  16     -0.77593711904397
  17       3.0638752956771
  18    -0.0070751811192177
  19      -0.2951011071553
  20    -2.0230198974401e-15
  21     -0.41290768439051
  22       1.3719646662688
  23    2.6120993802953e-15
  24     0.013214721213921
  25    -1.9115821191042e-16
  26    -8.1452286963163e-17
  27    0.0055132251592544
  28     -0.08106369080769
  29     0.003470348930271
  30     -0.77593712001557
  31       3.0638752995035
  32    -0.0070751817614328
  33      0.29510110643422
  34    -1.2129217716265e-15
  35     -0.41290768140632
  36      -1.3719646619479
  37    6.5668006681786e-16
  38     0.013214721230436
  39    -1.4346506283098e-16
  40    1.9880638405398e-16
  41    0.0055132249699447
  42     0.081063690795595
  43    4.3233095171785e-12
  44    -9.6695701740869e-10
  45    3.8269579737699e-09
  46      0.50387518733211
  47    1.9060595599572e-10
  48    6.7934823233765e-16
  49      -2.7887085078378
  50    -4.0413704647772e-10
  51    -1.0474325146584e-15
  52    1.6336049728261e-11
  53    -5.0524398169436e-16
  54    -1.0550861406749e-16
  55    8.4095002795624e-11
  56    -0.090649823805446
  57    -0.0034703489258375
  58      0.77593711904442
  59      -3.0638752956803
  60    -0.0070751811194188
  61     -0.29510110715314
  62    -9.1203682608389e-16
  63     -0.41290768438727
  64       1.3719646662567
  65    7.8961777305424e-16
  66    -0.013214721213972
  67    -1.7415562553877e-16
  68    -2.5057009630437e-16
  69    -0.0055132251588258
  70     0.081063690807642
  71    -0.0034703489302597
  72      0.77593712001123
  73      -3.0638752994917
  74    -0.0070751817591365
  75      0.29510110643487
  76    6.4877909636991e-16
  77     -0.41290768141409
  78      -1.3719646619545
  79    -1.4481184542712e-16
  80    -0.013214721230513
  81    -3.5467290007583e-16
  82    -1.9894922113027e-16
  83    -0.0055132249703187
  84    -0.081063690795756
  85    3.6852855364721e-11
  86    6.3458787687194e-10
  87    -0.029782324526481
  88     -0.50627821524817
  89    -0.029782324562845
  90     -0.50627821588914
  91    -3.7892496120101e-11
  92    -6.2867777742477e-10
  93     0.029782324527236
  94      0.50627821524609
  95     0.029782324563524
  96      0.50627821588425
 Sym= A
 Ene=     1.207656043
 Spin= Alpha
 Occup=    0.00000
   1    0.0041175902028089
   2     -0.37608132170187
   3      0.82778923497291
   4    8.402898790902e-13
   5     -0.41245601841165
   6    2.1470815286316e-16
   7    -5.411333363968e-12
   8      0.56473941393079
   9    -4.2566965638434e-17
  10    -0.021602024625801
  11    3.1261029597818e-16
  12    -1.9266132088247e-16
  13    -0.076283006938718
  14     2.27890258827e-13
  15    0.0040542895280181
  16     -0.37549870371285
  17      0.82854378889216
  18     -0.35595172893599
  19     -0.20545946071957
  20    6.7522844383362e-16
  21      0.48384964523142
  22      0.27954121850667
  23    -1.1722692021557e-15
  24    -0.021584217429112
  25    -1.1709310339488e-16
  26    3.8383019109292e-16
  27     0.038155265446159
  28     0.065937663607476
  29    0.0040542895280715
  30     -0.37549870371233
  31        0.828543788891
  32     -0.35595172893772
  33      0.20545946071691
  34    -7.2177370261299e-16
  35      0.48384964524145
  36     -0.27954121849184
  37    1.4347364486056e-15
  38    -0.021584217429066
  39    -4.2943429416705e-16
  40    -6.0125502351501e-17
  41     0.038155265445732
  42    -0.065937663607735
  43    0.0041175902028139
  44     -0.37608132170549
  45      0.82778923498641
  46    -1.0164081411777e-12
  47      0.41245601841228
  48    -6.2870940796564e-17
  49    6.4714684697117e-12
  50     -0.56473941393203
  51    -4.740401924194e-16
  52    -0.021602024625722
  53    1.2443714802388e-16
  54    5.4079651378679e-17
  55    -0.076283006938431
  56    2.5149952804147e-13
  57    0.0040542895280272
  58     -0.37549870371464
  59      0.82854378889921
  60      0.35595172893694
  61      0.20545946071835
  62    -1.4186045139665e-17
  63     -0.48384964523592
  64     -0.27954121849971
  65    2.1450687656166e-16
  66    -0.021584217429051
  67    -5.6078632805149e-17
  68    6.1571655809316e-17
  69     0.038155265445845
  70     0.065937663607481
  71    0.0040542895280656
  72     -0.37549870371124
  73      0.82854378888653
  74      0.35595172893687
  75     -0.20545946071838
  76    1.1285109043938e-16
  77     -0.48384964523687
  78      0.27954121849995
  79    -1.1913771014859e-16
  80    -0.021584217429113
  81    -7.3906813712229e-18
  82    -5.5178847807917e-17
  83     0.038155265446059
  84     -0.06593766360768
  85      0.26030311161365
  86     -0.80650048615905
  87      0.25980963432515
  88     -0.80263438679173
  89      0.25980963432545
  90     -0.80263438679206
  91      0.26030311161363
  92     -0.80650048616129
  93      0.25980963432508
  94     -0.80263438679265
  95      0.25980963432554
  96     -0.80263438679183
 Sym= A
 Ene=     1.245333937
 Spin= Alpha
 Occup=    0.00000
   1    2.1102387533747e-14
   2    2.7860028478459e-12
   3    -7.7383402330717e-12
   4       0.5526828560877
   5    1.2310418867998e-12
   6    1.5669027574434e-15
   7      -3.7807575510973
   8    -1.1754333360604e-12
   9    -2.3964263271478e-15
  10    6.671995377248e-14
  11    2.8631634153469e-16
  12    1.9820317112211e-16
  13    8.1790726401658e-14
  14     0.096335657750929
  15    -1.7996868883632e-06
  16    5.671523764855e-05
  17    -0.0002457012907328
  18      0.27638597880503
  19      -0.4787221172826
  20    -9.798690021198e-16
  21      -1.8906385161874
  22       3.2743654347951
  23    1.3255014593125e-15
  24    9.1885732522461e-07
  25    1.6697838530446e-16
  26    3.3574168924349e-16
  27     0.083448931448875
  28    -0.048155725822165
  29    1.7996868843967e-06
  30    -5.6715235252546e-05
  31    0.00024570128333073
  32     -0.27638597880479
  33     -0.47872211728358
  34    -4.7236614175692e-16
  35       1.8906385161885
  36       3.2743654347979
  37     2.26105658551e-16
  38    -9.1885742166268e-07
  39    -9.9639635591235e-17
  40    -9.1119369107027e-17
  41    -0.083448931448872
  42    -0.048155725822202
  43    6.2750565988324e-15
  44    7.2358526308137e-13
  45    -2.4931956766484e-12
  46     -0.55268285608944
  47    -2.2599648298794e-13
  48    -3.2489276162014e-16
  49       3.7807575511062
  50    3.7299099391114e-13
  51    2.2212572363034e-16
  52    -7.1448154937376e-15
  53    -1.1585687534844e-16
  54    2.8080015043917e-16
  55    -3.627455907054e-14
  56     0.096335657751258
  57    -1.7996868734784e-06
  58    5.6715236921656e-05
  59    -0.0002457012888152
  60     -0.27638597880659
  61      0.47872211728287
  62    -3.0364031270725e-16
  63        1.890638516192
  64      -3.2743654347992
  65    -1.4203234636868e-16
  66    9.1885755566647e-07
  67     1.74292371363e-16
  68    2.0334207001928e-16
  69     0.083448931448933
  70    -0.048155725822441
  71    1.7996868234569e-06
  72    -5.6715239507464e-05
  73    0.00024570129904461
  74      0.27638597880486
  75      0.47872211728274
  76    -1.3013734394931e-15
  77      -1.8906385161865
  78      -3.2743654347956
  79    1.9421157281222e-15
  80    -9.188573357947e-07
  81    -2.6921695783106e-16
  82    -3.7087845001229e-16
  83     -0.08344893144893
  84    -0.048155725821759
  85    -6.7388227467391e-13
  86    3.0633858692737e-12
  87    0.00010352454334391
  88    -5.8182075975382e-05
  89    -0.0001035245441176
  90    5.8182077635928e-05
  91    1.4663547840099e-13
  92    5.1769579701599e-13
  93    0.00010352454298404
  94    -5.8182073883284e-05
  95    -0.00010352454391094
  96    5.8182075824559e-05
 Sym= A
 Ene=     1.309285003
 Spin= Alpha
 Occup=    0.00000
   1    1.5587709696897e-11
   2    6.5279177857075e-10
   3    -2.2963123250184e-09
   4      0.15372628346231
   5    2.0907184121411e-11
   6    -9.1242821103565e-16
   7      -1.1049063667542
   8    3.4924298071862e-11
   9    1.0427707404835e-15
  10    -1.7568908126552e-11
  11    3.8318665137653e-17
  12    7.7550309460903e-16
  13    -5.1553408569015e-11
  14      0.08438007857003
  15    -0.025086554635157
  16      -1.0506512630272
  17       3.6951358302576
  18    -0.067376583584732
  19     0.049763651299853
  20    6.8002250290271e-17
  21      0.22894025426283
  22     -0.50173532624456
  23    2.8834037114247e-16
  24     0.028495560896025
  25    -3.6633291812662e-16
  26    -1.0541553665741e-16
  27    -0.078190338959786
  28    -0.051128254698954
  29     0.025086554619585
  30       1.0506512623744
  31      -3.6951358279624
  32     0.067376583639177
  33     0.049763651433972
  34    5.5596270492278e-16
  35     -0.22894025480726
  36     -0.50173532711701
  37    -7.6307808691877e-16
  38    -0.028495560878237
  39    2.3970339886297e-16
  40    -1.467927857841e-17
  41      0.07819033900193
  42    -0.051128254614753
  43    1.5557393162565e-11
  44    6.5071986945816e-10
  45    -2.2893571306383e-09
  46     -0.15372628346138
  47    -2.0825085388732e-11
  48    -1.463860482979e-17
  49       1.1049063667505
  50    -3.1216952651809e-11
  51    3.7991770770049e-16
  52    -1.7743655300462e-11
  53    2.8883238597887e-16
  54    -6.6611782150879e-16
  55    -5.1676511601102e-11
  56     0.084380078569818
  57    -0.025086554635098
  58      -1.0506512630232
  59       3.6951358302413
  60     0.067376583584638
  61    -0.049763651300172
  62    -2.592381279045e-16
  63     -0.22894025426517
  64      0.50173532624208
  65    2.0226507509678e-16
  66     0.028495560896016
  67    8.3028198888802e-17
  68    1.3080246956729e-16
  69    -0.078190338959803
  70     -0.05112825469875
  71     0.025086554619526
  72       1.0506512623743
  73      -3.6951358279553
  74    -0.067376583638332
  75    -0.049763651433651
  76    8.1804137940269e-16
  77      0.22894025480631
  78      0.50173532711224
  79    -1.141207981711e-15
  80    -0.028495560878471
  81    -9.6248358095134e-17
  82    2.2111216023295e-16
  83     0.078190339001787
  84    -0.051128254614699
  85    1.5751915821598e-10
  86    2.638913641903e-10
  87     -0.25519856959018
  88     -0.42443761561372
  89      0.25519856943213
  90      0.42443761535167
  91    1.5829522075943e-10
  92    2.6357899030749e-10
  93     -0.25519856959058
  94     -0.42443761561255
  95      0.25519856943157
  96      0.42443761535139
 Sym= A
 Ene=     1.309348192
 Spin= Alpha
 Occup=    0.00000
   1    -0.028995038286561
   2      -1.2133685418624
   3       4.2689474300176
   4    8.3441296315759e-11
   5    -0.038540509013699
   6    -1.7809425593562e-16
   7    -5.9849829468048e-10
   8    -0.061298726408203
   9    -2.8326983537654e-16
  10     0.032882498153086
  11    4.7711291413009e-16
  12    -2.7174525558326e-17
  13     0.096228647626932
  14    4.5495831395294e-11
  15     0.014496147807632
  16       0.6068829978677
  17      -2.1346859481753
  18    -0.049671603728458
  19      0.12498187353319
  20    -3.0017729106699e-16
  21      0.50411092512359
  22     -0.81217007676503
  23    6.2002431871047e-16
  24    -0.016462593337914
  25    -1.3586844803298e-16
  26    7.3588979498288e-17
  27    -0.039221741566522
  28     0.078225134453464
  29     0.014496147834653
  30      0.60688299899953
  31      -2.1346859521601
  32     -0.04967160365612
  33     -0.12498187348088
  34    3.9474230158809e-16
  35      0.50411092488709
  36      0.81217007623094
  37    -7.9427254705784e-16
  38    -0.016462593368296
  39    -6.7805025925717e-17
  40    -4.4174562754279e-17
  41     -0.03922174148267
  42    -0.078225134508423
  43    -0.028995038286661
  44      -1.2133685418654
  45       4.2689474300358
  46    -8.2422624546833e-11
  47     0.038540509014345
  48    -5.8353890307882e-17
  49    5.9524887974219e-10
  50     0.061298726413207
  51    2.9489390165774e-16
  52     0.032882498152879
  53    1.0407449451692e-16
  54    1.7084045881509e-17
  55     0.096228647627066
  56    4.524085828023e-11
  57     0.014496147807718
  58      0.60688299787333
  59      -2.1346859481965
  60     0.049671603728712
  61     -0.12498187353362
  62    6.7767649138044e-17
  63      -0.5041109251314
  64      0.81217007676353
  65    -2.4166107491982e-16
  66    -0.016462593337847
  67    -4.3376563749041e-17
  68    1.3131261482706e-16
  69    -0.039221741566578
  70      0.07822513445354
  71     0.014496147834552
  72       0.6068829989983
  73      -2.1346859521477
  74     0.049671603656852
  75      0.12498187348105
  76    1.6401993858103e-16
  77     -0.50411092488314
  78     -0.81217007623397
  79    5.4811778769023e-17
  80    -0.016462593368628
  81    -2.0438366390491e-16
  82    -1.769555758885e-16
  83    -0.039221741482818
  84    -0.078225134508443
  85     -0.29439206530818
  86     -0.49069199149594
  87      0.14717021318139
  88      0.24549341694417
  89      0.14717021345443
  90      0.24549341740105
  91     -0.29439206530818
  92     -0.49069199149658
  93      0.14717021318014
  94      0.24549341694482
  95       0.1471702134543
  96      0.24549341740106
 Sym= A
 Ene=     1.388163964
 Spin= Alpha
 Occup=    0.00000
   1    -0.0036221756588717
   2      0.42521997079442
   3       1.3987486261854
   4    5.414349769489e-12
   5     -0.46283093375587
   6    -1.0089476698339e-16
   7    1.4826756629244e-10
   8       1.5237909150508
   9    -1.4306434946977e-16
  10     -0.05476051476542
  11    -1.0863029621454e-16
  12    -3.9186412148829e-16
  13     0.089497784155653
  14    7.0884634824126e-12
  15    -0.0017883865024322
  16      0.21138587344927
  17      0.69831162692207
  18      -0.1767313843748
  19     -0.15635644894914
  20    -2.0454434896653e-16
  21       1.2814229384255
  22     -0.68746577061861
  23    7.0797962748571e-16
  24    -0.027294758081768
  25    -1.3938254425006e-16
  26    -1.9041009296991e-16
  27     0.029581138943812
  28    -0.068883199570097
  29    0.0017883865030856
  30     -0.21138587352427
  31     -0.69831162717295
  32      0.17673138444903
  33     -0.15635644898564
  34    4.6682591815966e-16
  35      -1.2814229385873
  36     -0.68746577035483
  37    -1.0535251387326e-15
  38     0.027294758091488
  39    -6.1538456979133e-17
  40    5.1715713452465e-17
  41    -0.029581138929729
  42    -0.068883199580415
  43    0.0036221756588567
  44     -0.42521997079517
  45      -1.3987486261829
  46    5.7706953844905e-12
  47     -0.46283093375585
  48    3.7472961273448e-17
  49    1.456257335032e-10
  50       1.5237909150507
  51    1.3868127247134e-16
  52      0.05476051476544
  53    1.694527749517e-17
  54    3.6693501813483e-17
  55    -0.089497784155568
  56    -7.1475014571182e-12
  57    0.0017883865024643
  58     -0.21138587344809
  59     -0.69831162692628
  60      -0.1767313843748
  61     -0.15635644894932
  62    2.7529604674496e-17
  63       1.2814229384249
  64     -0.68746577061693
  65    6.7204318580431e-18
  66     0.027294758081718
  67    8.904172796233e-18
  68    -6.3489405107896e-17
  69    -0.029581138943828
  70     0.068883199570208
  71    -0.0017883865031042
  72      0.21138587352408
  73      0.69831162717408
  74      0.17673138444885
  75     -0.15635644898558
  76    -1.8526426024463e-17
  77      -1.2814229385868
  78      -0.6874657703543
  79    -7.8485250411206e-17
  80    -0.027294758091437
  81    1.4427988141498e-16
  82    4.1120242550861e-17
  83     0.029581138929627
  84      0.06888319958043
  85     -0.45910856011289
  86     -0.72182237671413
  87     -0.23073617132427
  88     -0.36204764334362
  89      0.23073617140619
  90       0.3620476434727
  91      0.45910856011275
  92      0.72182237671369
  93      0.23073617132461
  94      0.36204764334434
  95     -0.23073617140655
  96     -0.36204764347244
 Sym= A
 Ene=     1.388375842
 Spin= Alpha
 Occup=    0.00000
   1    4.1280245010411e-13
   2    -4.2608997703951e-11
   3    -1.4905938290097e-10
   4     0.054054228690984
   5    4.7813539844553e-11
   6    5.2939735542633e-16
   7       1.4314833493842
   8    -1.5639350261797e-10
   9    -6.5993755069279e-16
  10    5.598731262638e-12
  11    -1.4603205087256e-16
  12    6.806147345934e-16
  13    -9.2943096117624e-12
  14     0.069234986503839
  15    0.0031479209174142
  16     -0.36693884607219
  17      -1.2144640766868
  18      0.36046445769586
  19      0.17712264048176
  20    -2.9628384279821e-16
  21     -0.78634772068953
  22      -1.2810954452277
  23    5.2826089043196e-16
  24     0.047286343155852
  25    8.5292698274973e-16
  26    -7.8482642053048e-16
  27     0.068869802030153
  28      0.05001496274766
  29    0.0031479209170535
  30     -0.36693884602916
  31       -1.214464076544
  32      0.36046445765961
  33     -0.17712264045038
  34    2.0055210190312e-16
  35     -0.78634772042148
  36       1.2810954453721
  37    -4.239804546018e-16
  38      0.04728634315037
  39    1.0399873276151e-15
  40    9.5282954869276e-16
  41     0.068869802036076
  42    -0.050014962733432
  43    -3.6490994844903e-13
  44    4.4023178811889e-11
  45    1.4362725853581e-10
  46     0.054054228690792
  47    4.7878484008599e-11
  48    1.8901392939136e-16
  49       1.4314833493869
  50    -1.5511454538456e-10
  51    2.5240446660719e-16
  52    -5.7400602683895e-12
  53    -6.5408215111473e-16
  54    -1.1728029980586e-15
  55    9.076876171181e-12
  56    -0.069234986503841
  57    -0.0031479209174113
  58      0.36693884607264
  59       1.2144640766856
  60      0.36046445769528
  61      0.17712264048256
  62    -3.7613075780498e-16
  63     -0.78634772068623
  64      -1.2810954452333
  65    1.8633177973154e-16
  66     -0.04728634315587
  67    -3.3690991716262e-16
  68    1.121851670724e-16
  69    -0.068869802030004
  70    -0.050014962747754
  71    -0.0031479209171074
  72       0.3669388460274
  73       1.2144640765506
  74      0.36046445765974
  75     -0.17712264045025
  76    3.2267867063322e-16
  77     -0.78634772042415
  78       1.2810954453702
  79    -9.6635092554807e-17
  80    -0.047286343150258
  81    -4.3725429461119e-16
  82    -3.4118274143158e-16
  83    -0.068869802036207
  84     0.050014962733605
  85    4.7377535107493e-11
  86    7.4862464445435e-11
  87      0.39854554268443
  88      0.62539676527852
  89      0.39854554263588
  90      0.62539676520385
  91    -4.6327417067711e-11
  92    -7.4064977938687e-11
  93     -0.39854554268454
  94     -0.62539676527811
  95     -0.39854554263685
  96       -0.625396765205
 Sym= A
 Ene=     1.463258233
 Spin= Alpha
 Occup=    0.00000
   1    -0.0099685671627387
   2     -0.64755932714851
   3       1.4334965823007
   4    3.0595295963496e-13
   5      0.13888006773607
   6    1.8870724116217e-16
   7    -2.7375823837378e-12
   8      0.64897465131732
   9    -4.2427593251641e-17
  10     0.030550097049292
  11    -1.6388981435026e-16
  12    3.8886320372392e-16
  13     0.052027107274096
  14    3.1118700585055e-14
  15    0.0099163307459494
  16      0.64882934515685
  17      -1.4276501465532
  18     -0.12098031131019
  19    -0.069988525995026
  20    9.3291785630873e-17
  21     -0.55723474979309
  22     -0.32578398599754
  23    -6.2143354484858e-17
  24    -0.030596717797133
  25    5.0968112793065e-17
  26    5.1584392936972e-18
  27     0.025901754886604
  28     0.044734871096005
  29    -0.0099163307459376
  30      -0.6488293451566
  31       1.4276501465538
  32      0.12098031130981
  33    -0.069988525995061
  34    3.045923454851e-16
  35      0.55723474979327
  36     -0.32578398599747
  37    -3.2803383277454e-16
  38     0.030596717797092
  39    3.4524680792715e-17
  40    1.6682815458319e-17
  41    -0.025901754886632
  42     0.044734871096002
  43    0.0099685671627058
  44      0.64755932714732
  45      -1.4334965822965
  46    -9.9750671949631e-14
  47      0.13888006773622
  48    2.7661476581492e-17
  49    3.458635600276e-13
  50      0.64897465131537
  51    -1.2190749647893e-17
  52    -0.030550097049173
  53    -5.4040932800182e-18
  54    -1.8775280803606e-17
  55    -0.052027107273928
  56    3.5486846949498e-14
  57    -0.0099163307459506
  58     -0.64882934515714
  59        1.427650146554
  60     -0.12098031130999
  61    -0.069988525995143
  62    -6.6419461398236e-17
  63     -0.55723474979291
  64     -0.32578398599775
  65    1.2530452019024e-16
  66      0.03059671779713
  67    -3.497991465201e-17
  68    -5.2400332036617e-17
  69    -0.025901754886627
  70    -0.044734871095997
  71    0.0099163307459707
  72      0.64882934515797
  73      -1.4276501465586
  74       0.1209803113099
  75    -0.069988525994582
  76    -3.9237982692569e-17
  77      0.55723474979329
  78     -0.32578398600092
  79    2.1086898585466e-17
  80     -0.03059671779721
  81    -1.1258115539017e-16
  82    9.6710976856686e-17
  83      0.02590175488668
  84    -0.044734871096132
  85      -0.4528230866206
  86     -0.36221788982133
  87      0.45148853512503
  88      0.36035311422876
  89     -0.45148853512483
  90     -0.36035311422902
  91      0.45282308661986
  92         0.36221788982
  93     -0.45148853512489
  94     -0.36035311422904
  95      0.45148853512549
  96       0.3603531142304
 Sym= A
 Ene=     1.517913173
 Spin= Alpha
 Occup=    0.00000
   1    4.8787268338792e-17
   2    9.5183020013897e-16
   3    -4.8628561847628e-15
   4    2.2224652159792e-17
   5    2.3904402271391e-16
   6    -2.586264223783e-15
   7    4.4930070530609e-15
   8    2.5899112946827e-15
   9    3.6056207556425e-16
  10    8.2663048060671e-17
  11      0.33878058555023
  12    -3.4102673429305e-16
  13    -1.348132178923e-17
  14    -5.7535912201556e-17
  15    1.1055475504173e-17
  16    -1.3084437015552e-15
  17    2.6633882922449e-15
  18    2.1759552644915e-16
  19    9.5752137164878e-16
  20    9.6505777754838e-06
  21    -4.3534129903379e-16
  22    -4.9304117853679e-15
  23    -7.7706908899853e-06
  24    1.1632880463376e-16
  25      -0.1693892786286
  26      0.29339418459544
  27    1.8822778937824e-16
  28    1.8009554379017e-16
  29    -4.6097956254232e-17
  30    -4.2670466246841e-16
  31    -3.2601276084809e-15
  32    3.6211022394752e-16
  33    -2.3870371401381e-16
  34    9.6505777734055e-06
  35    -1.4429230489901e-15
  36    -1.6680268445728e-15
  37    -7.7706908963091e-06
  38    6.0753001062673e-17
  39      -0.1693892786286
  40     -0.29339418459544
  41    2.719835837649e-17
  42    1.1833239228627e-16
  43    9.0842865643521e-17
  44    7.4836838085112e-16
  45    -2.560425603948e-15
  46    -3.8451551895208e-16
  47    -4.1647005334628e-16
  48    -2.6787463016675e-15
  49    4.258721382801e-16
  50    2.5544096776653e-15
  51    3.5795536692381e-15
  52    -5.2638006254789e-17
  53      0.33878058555025
  54    -3.5361274867654e-18
  55    -1.888311843155e-16
  56    -1.0403412546354e-15
  57    5.1052726221527e-17
  58    7.7508568038439e-16
  59    -1.2235586604379e-15
  60    -2.8975538096321e-17
  61    4.3496421756292e-17
  62    -9.65057776745e-06
  63    -2.3611220094641e-15
  64    -2.3695166019185e-15
  65    7.7706908904605e-06
  66    4.282835695434e-18
  67     -0.16938927862861
  68      0.29339418459543
  69    2.3516622592093e-16
  70    1.3918057934606e-17
  71    -9.9657490631145e-17
  72     6.87033391153e-16
  73    5.7616898068106e-15
  74    -5.2116022936842e-16
  75    -3.3244602617783e-16
  76    -9.6505777744777e-06
  77    4.0820143068585e-15
  78    1.583728845768e-15
  79    7.7706908925107e-06
  80    1.4646586593068e-16
  81      -0.1693892786286
  82     -0.29339418459543
  83    -6.9472883607259e-17
  84    4.7715446400447e-16
  85    -2.3612097554732e-17
  86    -5.608080763548e-16
  87    6.8863051227162e-16
  88    -1.4672900263267e-18
  89    -2.5459170923573e-16
  90    7.3998053992344e-16
  91    5.209084352813e-16
  92    1.9541204582872e-15
  93    -4.9642688749595e-16
  94    -1.0069416188471e-15
  95    -9.5128212605214e-16
  96    1.9530389674636e-15
 Sym= A
 Ene=     1.662572696
 Spin= Alpha
 Occup=    0.00000
   1    3.1390702768201e-17
   2    1.1115466943713e-15
   3    -5.3899554056575e-15
   4    -1.046410473636e-15
   5    -4.9710328713653e-16
   6    -0.062580115715486
   7    5.3416542157895e-15
   8    7.3988162788424e-15
   9    -0.0085022634878698
  10    1.5349832329974e-16
  11    8.163010145525e-15
  12     -0.37001410585859
  13    3.0618325556573e-16
  14    -1.6987505774473e-16
  15    -1.497756347625e-16
  16    -4.2928255384292e-15
  17    1.1794044296421e-14
  18    2.6855045673183e-15
  19    8.4172832747538e-16
  20    -0.062598431524136
  21    -1.7053823274158e-14
  22    -1.3862711193629e-14
  23    -0.0084971928119981
  24    -8.8710871234353e-17
  25     -0.32042143661886
  26     -0.18500621332607
  27    -5.5643821353527e-17
  28    5.3403128323637e-16
  29    3.759897654498e-18
  30    2.3465209507684e-15
  31    -8.9843637548151e-15
  32    -7.437898298283e-16
  33    -5.6557746794376e-16
  34    -0.062598431524139
  35    5.2396669097167e-15
  36    -6.2572460593025e-15
  37    -0.0084971928120043
  38    3.6844634760764e-17
  39     -0.32042143661887
  40      0.18500621332607
  41    6.0801372005655e-16
  42    3.2406964929897e-16
  43    1.101510610498e-16
  44    2.4938972882271e-15
  45    -8.4430768468686e-15
  46    1.3052916735748e-15
  47    6.1298818339751e-16
  48    -0.062580115715502
  49    -2.4670937076371e-15
  50    -9.7099103956155e-15
  51    -0.0085022634878532
  52    -1.1706343339515e-16
  53    -1.08825185391e-15
  54      0.37001410585864
  55    -2.4027765405837e-17
  56    -2.2810116996785e-16
  57    -1.1522479383638e-16
  58    -4.4976021224681e-15
  59    2.0692810603404e-14
  60    -5.3953688351986e-16
  61    -5.9300990618928e-16
  62     -0.06259843152414
  63    1.2932178678663e-14
  64    1.2328674221301e-14
  65    -0.008497192812004
  66    -8.4415638287192e-17
  67      0.32042143661887
  68      0.18500621332607
  69    -1.6956370463491e-16
  70    4.3679946877909e-16
  71    6.3553586982629e-17
  72    3.6946204343617e-15
  73    -1.0602277236275e-14
  74    1.9274206451232e-15
  75    4.1663593669893e-17
  76    -0.062598431524128
  77    -9.1870718851132e-15
  78    1.1742577693828e-14
  79    -0.0084971928120016
  80    7.8711417573937e-17
  81      0.32042143661884
  82     -0.18500621332607
  83    3.5661534668671e-16
  84    6.7530788948476e-16
  85    -1.2824883913308e-15
  86    -2.5281270680204e-15
  87    3.2189593671306e-15
  88    7.7670000170418e-15
  89    -1.3121893399973e-15
  90    -1.473478092336e-15
  91    -1.8044006899696e-15
  92    -2.771801852424e-15
  93    2.2283530665144e-15
  94    4.4212806093644e-15
  95    -1.6123540381221e-15
  96    -4.9476987175745e-15
 Sym= A
 Ene=     1.697593372
 Spin= Alpha
 Occup=    0.00000
   1    -4.1333762242178e-12
   2    -9.8632167678024e-11
   3    3.854419071771e-10
   4     -0.28644706234678
   5    2.8598227342228e-11
   6    5.3382080031007e-16
   7     0.054411395747243
   8    -5.0419133834668e-10
   9    -2.8496321169868e-17
  10    2.1410264307856e-12
  11    1.183658472954e-15
  12    2.7709252191674e-15
  13    -8.6658433792568e-12
  14     0.097298693900094
  15    -0.027307484581005
  16     -0.64684992053689
  17       2.5701243675551
  18      0.23068109367793
  19    -0.032121634963666
  20    -1.0785188428639e-16
  21      -2.8625211087052
  22      -1.6285471997117
  23    1.1230500871342e-16
  24     0.013648508296955
  25    1.1885419513595e-15
  26    1.5235377904092e-15
  27     -0.01435969282517
  28     0.072570386622179
  29     0.027307484585214
  30      0.64684992063672
  31      -2.5701243679503
  32     -0.23068109366913
  33    -0.032121634891587
  34    -4.8084334136589e-16
  35       2.8625211091402
  36      -1.6285471999785
  37    6.5797213104575e-16
  38    -0.013648508299006
  39    1.2674681940596e-16
  40    -1.4461409527912e-15
  41     0.014359692801208
  42     0.072570386618458
  43    -4.2937954815901e-12
  44    -1.0121614798699e-10
  45    4.0761531921588e-10
  46        0.286447062347
  47    -2.8245948594699e-11
  48    -5.4285488693837e-16
  49    -0.054411395749164
  50    5.1591069946632e-10
  51    4.184620983194e-16
  52    1.9304330744566e-12
  53    -9.2952094570286e-16
  54    1.4324236572022e-15
  55    -8.6638056859443e-12
  56     0.097298693900111
  57    -0.027307484580832
  58     -0.64684992053427
  59       2.5701243675325
  60     -0.23068109367803
  61      0.03212163496344
  62    3.0603004418234e-18
  63        2.862521108694
  64       1.6285471997069
  65    -1.9369277994995e-16
  66     0.013648508297083
  67    -3.6070786220162e-17
  68    -2.4468057205813e-15
  69     -0.01435969282514
  70     0.072570386622213
  71     0.027307484585059
  72      0.64684992063451
  73      -2.5701243679311
  74      0.23068109366921
  75      0.03212163489163
  76    1.063252469121e-15
  77      -2.8625211091296
  78       1.6285471999719
  79    -5.9959937193721e-18
  80    -0.013648508299279
  81    -3.5425703383859e-15
  82    2.372156673488e-15
  83     0.014359692801311
  84     0.072570386618338
  85    8.9791502594602e-11
  86    1.5017849269942e-10
  87      0.58242293909649
  88      0.97330496277562
  89     -0.58242293918701
  90     -0.97330496292641
  91    9.0784349779298e-11
  92    1.5183225492564e-10
  93      0.58242293909553
  94      0.97330496277369
  95     -0.58242293918584
  96     -0.97330496292412
 Sym= A
 Ene=     1.697740913
 Spin= Alpha
 Occup=    0.00000
   1    -0.031465677742193
   2     -0.74656598731985
   3       2.9623882559607
   4    3.869792751083e-11
   5      0.21183481242691
   6    2.6138042145273e-16
   7    -1.0027907907881e-11
   8      -3.8017208374824
   9    -1.8364322314394e-16
  10     0.015576155185897
  11    -9.7588167544923e-17
  12    1.3294999302329e-16
  13    -0.064443116774037
  14    -1.3093091920112e-11
  15     0.015739476495949
  16      0.37325701371191
  17      -1.4814717092294
  18     0.032318891576332
  19     -0.26796196429752
  20    -3.5599135068109e-17
  21       1.6235466719392
  22      0.98963859608069
  23    -1.8082673254917e-17
  24    -0.0079233878585947
  25    -2.8583505461151e-16
  26    -6.1130790806066e-16
  27    -0.088965192152136
  28     0.014273630336103
  29     0.015739476488654
  30      0.37325701353852
  31      -1.4814717085447
  32     0.032318891638102
  33      0.26796196430596
  34    -3.0903083134005e-16
  35       1.6235466711761
  36     -0.98963859564383
  37    -9.1836467942114e-18
  38    -0.007923387854776
  39    -9.2609554665872e-16
  40    6.8468415762198e-16
  41    -0.088965192156019
  42    -0.014273630355511
  43    -0.031465677742237
  44     -0.74656598732005
  45       2.9623882559668
  46    -3.8295703203046e-11
  47     -0.21183481242704
  48    -2.0926294492613e-16
  49    6.1574373863133e-12
  50       3.8017208374873
  51    1.2231309578821e-16
  52     0.015576155185856
  53    5.0997141943163e-17
  54    1.1541492171515e-15
  55     -0.06444311677399
  56    -1.3037466667136e-11
  57     0.015739476495995
  58      0.37325701371254
  59      -1.4814717092386
  60    -0.032318891576459
  61      0.26796196429715
  62    -2.528933311779e-16
  63      -1.6235466719437
  64     -0.98963859608034
  65    -2.5907458470438e-17
  66    -0.0079233878585394
  67    9.6357120193228e-16
  68    8.4555836397811e-16
  69    -0.088965192152048
  70     0.014273630336173
  71     0.015739476488629
  72      0.37325701353871
  73      -1.4814717085433
  74    -0.032318891638433
  75     -0.26796196430563
  76    -1.7725650505738e-16
  77      -1.6235466711715
  78      0.98963859563972
  79    -3.1066836877904e-17
  80    -0.0079233878550367
  81    5.4057817202356e-16
  82    -7.1362645241654e-16
  83    -0.088965192155879
  84    -0.014273630355694
  85      0.67263742817579
  86       1.1244874503222
  87     -0.33649836848667
  88     -0.56188005696598
  89     -0.33649836833087
  90     -0.56188005670594
  91      0.67263742817615
  92       1.1244874503239
  93     -0.33649836848693
  94     -0.56188005696643
  95     -0.33649836833016
  96     -0.56188005670361
 Sym= A
 Ene=     1.765945464
 Spin= Alpha
 Occup=    0.00000
   1    -4.9700300425933e-17
   2    -8.0107975835668e-16
   3    3.754788015699e-15
   4    1.5760571970647e-15
   5    2.8621003799965e-16
   6     -0.11661120941132
   7    -1.3450912320422e-15
   8    -4.1920194028311e-15
   9    -0.085702910107783
  10    2.3712028171651e-16
  11    1.7651495954227e-11
  12      -0.2505635275197
  13    1.7339135158579e-16
  14    -4.6366225795325e-16
  15    1.5966157976129e-16
  16    8.990726808671e-17
  17    -8.6298532076078e-15
  18    1.2733660753963e-15
  19    6.6825101922211e-16
  20     0.058315089509891
  21    4.5911515520112e-15
  22    3.253774325689e-15
  23     0.042846788886543
  24    3.0190077911814e-16
  25    -0.087481631160288
  26      0.40206992738091
  27    3.8773892313561e-16
  28    -4.8881735312082e-16
  29    -1.7387305943432e-16
  30    -1.3664874095187e-15
  31    2.1347897505523e-15
  32    1.6708702499623e-15
  33    2.1867745924167e-16
  34     0.058315089517746
  35    -9.5631346530431e-15
  36    7.3955834494254e-15
  37     0.042846788892353
  38    1.2050785545515e-16
  39    -0.087481631136876
  40     -0.40206992737407
  41    1.5394152064389e-16
  42    6.0446554556569e-17
  43    -2.8732954766767e-17
  44    -1.4452199474363e-17
  45    2.1583236760157e-16
  46    -1.4069838961883e-15
  47    -3.9028006115646e-16
  48     -0.11661120941137
  49    5.0749857362718e-15
  50    2.4473331634095e-15
  51    -0.085702910107762
  52    -6.2332275890515e-17
  53    -1.7677504290489e-11
  54      0.25056352751989
  55    -1.2030338040003e-16
  56    -4.9491947652655e-16
  57    9.3786428754856e-17
  58    2.3075624600042e-15
  59    -2.549933479674e-15
  60    1.7078896513922e-15
  61    9.0105771737973e-17
  62     0.058315089509843
  63    -1.10887553863e-14
  64    -8.7007383601573e-15
  65     0.042846788886567
  66    1.6316435928251e-16
  67     0.087481631160434
  68     -0.40206992738086
  69    -2.711622178767e-16
  70    1.7349815994868e-16
  71    -1.0300758202405e-16
  72    1.484483432726e-15
  73    2.4383056580686e-15
  74    5.5607258103649e-16
  75    -8.9294728745167e-16
  76     0.058315089517755
  77    1.8381459459405e-15
  78    -1.7482464873654e-15
  79     0.042846788892345
  80    -2.9814602425066e-16
  81     0.087481631136838
  82      0.40206992737405
  83    -7.2787317918462e-16
  84    -6.2691339108116e-16
  85    6.8905206736739e-16
  86    1.2721817473523e-15
  87    -1.2238498978299e-15
  88    -2.3237508497751e-16
  89    2.7002000304898e-15
  90    4.333402837801e-15
  91    2.0522287246964e-16
  92    1.285443632088e-15
  93    -3.327153407886e-15
  94    -4.9665071049959e-15
  95    3.8874480038383e-16
  96    2.6040519566181e-16
 Sym= A
 Ene=     1.765963787
 Spin= Alpha
 Occup=    0.00000
   1    -8.312559272948e-17
   2    -8.8974508679884e-16
   3    7.2362450469267e-15
   4    -2.4018712681126e-16
   5    7.3742378207836e-17
   6    -4.5474441712837e-12
   7    -2.628606620948e-16
   8    -3.3504235507005e-15
   9    -3.3459187205849e-12
  10    -1.4959495018829e-16
  11     -0.45258692679953
  12    -9.7718121907919e-12
  13    -7.5623772100963e-17
  14    -6.3976797142258e-16
  15    1.271899650406e-17
  16    -3.1616788120988e-15
  17    4.4589681072281e-15
  18    1.1407729973777e-15
  19    -1.8877312102492e-16
  20      0.10099515180342
  21    -3.5885464336702e-15
  22    -3.6137844694694e-15
  23     0.074229079771701
  24    -6.2180171181501e-17
  25      0.30105889220742
  26    -0.087475086197065
  27    -4.1954661010314e-17
  28    2.1950978358919e-16
  29    -5.3051006305494e-17
  30    1.4336497478397e-15
  31    -1.7442906150179e-15
  32    -4.923351182225e-16
  33    -4.9081893743965e-16
  34     -0.10099515179888
  35     1.71961091757e-15
  36    -3.3504635606116e-15
  37    -0.074229079768357
  38    3.7589026984024e-16
  39     -0.30105889221428
  40    -0.087475086228407
  41    -1.2338933417241e-16
  42    1.4782253238721e-16
  43    2.9829830784031e-17
  44    3.645518709802e-16
  45    -4.7410786559894e-15
  46    3.3178041139536e-16
  47    1.9788604264585e-16
  48    -4.559699353562e-12
  49    -2.110088985943e-15
  50    -4.2474407209846e-15
  51    -3.337192839391e-12
  52    -5.0317432016565e-18
  53      0.45258692679954
  54    9.8060033084018e-12
  55    2.9566306656539e-16
  56    -4.9731768477596e-16
  57    -7.6268713839776e-17
  58    -1.8143239974973e-15
  59    1.0948527439112e-14
  60    -7.6276352513755e-16
  61    2.9956696631498e-16
  62      0.10099515180343
  63    8.4973764521626e-15
  64    7.5893075065004e-15
  65     0.074229079771696
  66    -1.6761614987828e-16
  67     -0.30105889220743
  68     0.087475086197028
  69    -3.2838702281184e-16
  70    2.769162927772e-16
  71    1.5754632624902e-16
  72    3.965807890149e-15
  73    -1.6373083342742e-14
  74    1.2714459492244e-15
  75    5.0525107868022e-16
  76     -0.10099515179886
  77    -1.0257579081086e-14
  78    5.6732610729682e-15
  79    -0.074229079768361
  80    -3.3855251825748e-16
  81      0.30105889221424
  82      0.08747508622845
  83    -1.9669925933209e-16
  84    -1.3223344216448e-16
  85    -4.5090653614443e-16
  86    9.5733373978258e-16
  87    8.3574939115247e-16
  88    1.4061932530534e-15
  89    -7.1415591198084e-16
  90    -1.0491660472527e-15
  91    -5.4529835739572e-16
  92    -1.0069554623608e-15
  93    1.5495146581859e-15
  94    2.9045595930668e-15
  95    -1.2925829482827e-15
  96    -2.6447402684403e-15
 Sym= A
 Ene=     1.795076652
 Spin= Alpha
 Occup=    0.00000
   1    6.2987839497797e-17
   2    1.2719985734498e-15
   3    -5.9991490467186e-15
   4    8.1561278375118e-16
   5    -2.334816871412e-16
   6      0.14567927854128
   7    2.1748604503055e-15
   8    7.5657428329565e-15
   9    -0.065054667722902
  10    -2.6222620733987e-16
  11    -1.9499575801827e-10
  12      0.52233844740327
  13    -2.3384055146325e-16
  14    -6.6770865243392e-17
  15    6.2165777709742e-17
  16    1.8109808932124e-15
  17    -5.2463702782075e-15
  18    -1.5234566671577e-15
  19    1.1540230878392e-15
  20     0.072845610238469
  21    1.0952965230176e-14
  22    1.5624013364634e-15
  23    -0.032517494061407
  24    2.9372942819412e-17
  25       0.2738189389966
  26      0.04803495876513
  27    -2.5333605735689e-16
  28    -1.0225849120191e-16
  29    -4.8529200794313e-17
  30    -2.7202482554547e-15
  31    6.7313948573243e-15
  32    1.2328083565779e-15
  33    -3.3000378850638e-16
  34    -0.072845609791407
  35    -1.4551522499348e-14
  36    5.8905244940872e-15
  37     0.032517493861787
  38    1.3311440317179e-16
  39     -0.27381893770598
  40     0.048034957794986
  41    1.1737745711691e-16
  42    -3.0369431459463e-16
  43    -2.5537088957459e-18
  44    1.2857169149081e-16
  45    -7.9585527876861e-16
  46    -7.1165150645681e-16
  47    -3.3884779067078e-16
  48     -0.14567927854124
  49    -7.2361223046865e-16
  50    -8.2268852679358e-16
  51     0.065054667722945
  52    1.865058246786e-16
  53    -1.9502530591098e-10
  54      0.52233844740317
  55    4.2277966956493e-16
  56    -9.8658763249302e-16
  57    2.1572561207234e-16
  58    2.377690147599e-15
  59    -1.3233001540758e-14
  60    1.030423168848e-15
  61    -4.7574285753743e-16
  62    -0.072845610238493
  63    -1.2927379528913e-14
  64    -7.7827959465511e-15
  65     0.032517494061383
  66    -4.2120905769837e-17
  67      0.27381893899655
  68     0.048034958765252
  69    2.4682616242972e-16
  70    -6.4473798736575e-16
  71    -9.5789111960806e-17
  72    -4.1618042711235e-15
  73    1.896800896442e-14
  74    -1.2654667253154e-15
  75    -2.6117374381315e-16
  76     0.072845609791397
  77    1.7188302524941e-14
  78    -8.5610398107646e-15
  79    -0.032517493861801
  80    -4.7301400407859e-17
  81     -0.27381893770607
  82      0.04803495779485
  83    4.9974380864308e-16
  84    6.6566553942403e-18
  85    -1.2836147827273e-15
  86    -2.2184762108068e-15
  87    -1.9987772193582e-15
  88    -3.405766709537e-15
  89    3.285275085117e-15
  90    5.3169725693916e-15
  91    -2.2744928909982e-16
  92    -2.8236950316651e-16
  93    -2.3155480897578e-15
  94    -4.5375115037259e-15
  95    2.6864158697691e-15
  96    5.6149870314579e-15
 Sym= A
 Ene=      1.79507797
 Spin= Alpha
 Occup=    0.00000
   1    -2.576093535195e-17
   2    -2.438165388549e-16
   3    3.2646174955119e-15
   4    -9.4054029913268e-16
   5    7.7435061157592e-17
   6    -2.5808658378166e-10
   7    3.5280202610765e-16
   8    -1.2497409772264e-15
   9    1.1526498489311e-10
  10    -7.7633983513195e-17
  11      -0.1100739076627
  12    -9.2539459793553e-10
  13    3.8807288292441e-17
  14    3.1511148990362e-16
  15    -5.512304529106e-18
  16    -7.5876965506014e-16
  17    1.8140607329474e-15
  18    -3.4746113050023e-16
  19    1.0201097719573e-16
  20      0.12617503368409
  21    -1.5958629996467e-15
  22    -2.0929740664949e-15
  23    -0.056331250127551
  24    2.2156653684472e-16
  25       0.3642214643684
  26      0.27383141423531
  27    2.1771943977679e-16
  28    -3.6408089519538e-16
  29    1.5271001034491e-17
  30    -5.0975265065313e-17
  31    1.0589503828106e-15
  32    1.9498460680443e-16
  33     4.26581825269e-16
  34       0.1261750339422
  35    7.7485742472164e-16
  36    -3.0885661484219e-15
  37    -0.056331250242767
  38    -1.6437678136201e-16
  39      0.36422146533859
  40     -0.27383141440552
  41    -2.7825172772405e-17
  42    3.480833457921e-16
  43    3.031553237279e-17
  44    2.1879486515119e-16
  45    -2.6009457200657e-15
  46    7.2684708623382e-16
  47    1.6607466696738e-16
  48    2.5810367737616e-10
  49    -2.5683979336213e-15
  50    -2.4714932347426e-15
  51    -1.1525595095647e-10
  52    3.5984236909423e-17
  53     -0.11007390766265
  54    -9.2542323138755e-10
  55    2.1922125937448e-16
  56    1.0370637689298e-15
  57    -8.5431714537552e-17
  58    -6.2387923191751e-16
  59    4.0097133439515e-15
  60    2.4787650963885e-16
  61    -3.4549973899988e-16
  62     -0.12617503368409
  63    4.1957285754775e-15
  64    4.7145982317861e-15
  65     0.056331250127552
  66    4.3406022039167e-16
  67      0.36422146436836
  68      0.27383141423537
  69    -2.5142783034938e-16
  70    2.4975585201059e-16
  71    1.3907132526564e-16
  72    9.3000450909987e-16
  73    -6.7755992731797e-15
  74    2.1324449686281e-16
  75    2.4404006005924e-16
  76     -0.12617503394222
  77    -5.0094089433653e-15
  78    2.3079859419857e-15
  79     0.056331250242756
  80    -2.8322051186186e-16
  81      0.36422146533862
  82     -0.27383141440557
  83    -3.60793351821e-16
  84    -4.2342218639964e-16
  85    -3.3693159026882e-16
  86    5.2049813088798e-16
  87    1.4161471873585e-15
  88    3.3389478978351e-16
  89    -7.7999809326548e-16
  90    -8.4462592726207e-16
  91    -1.9270766490991e-17
  92    -9.850645837577e-16
  93    1.4982585929426e-15
  94    1.2960809561362e-15
  95    -1.2665270158105e-15
  96    -9.765194837318e-16
 Sym= A
 Ene=      2.05736214
 Spin= Alpha
 Occup=    0.00000
   1    0.0054547785376735
   2      0.29368848473496
   3     -0.29153332327167
   4    8.7170702424545e-15
   5    -0.089698682392191
   6    8.5443591062409e-18
   7    -7.3638540405978e-15
   8    -0.050930055128497
   9    -8.6386380031686e-17
  10       0.3885647157082
  11    -1.1035486880937e-16
  12    1.5860088330062e-16
  13    0.0056475817661106
  14    1.4588104947376e-14
  15    0.0054757175695157
  16      0.29410031844531
  17     -0.29352134888362
  18    -0.077712911462443
  19    -0.044900919155947
  20    4.2024996954537e-17
  21     -0.04215760120214
  22    -0.024582145310145
  23    -1.6600877979773e-17
  24      0.38853434782402
  25    3.4597778184355e-17
  26    5.3734389373379e-17
  27    -0.0028938846454611
  28    -0.0049305294506461
  29    0.0054757175695287
  30      0.29410031844557
  31      -0.2935213488854
  32    -0.077712911462445
  33     0.044900919155965
  34    -8.7652443938613e-17
  35    -0.042157601201373
  36     0.024582145309463
  37    6.2736063012875e-17
  38      0.38853434782398
  39    -8.9566691280336e-17
  40    2.2235481023102e-16
  41    -0.0028938846454468
  42    0.0049305294506539
  43    0.0054547785376645
  44      0.29368848473486
  45     -0.29153332327057
  46    8.2957215511514e-15
  47     0.089698682392178
  48    2.5508639068225e-17
  49    1.8609043750415e-14
  50     0.050930055129301
  51    -1.4122641638925e-17
  52      0.38856471570819
  53    3.5976898839874e-17
  54    -6.1253094758346e-17
  55    0.0056475817660987
  56    -7.4125235576037e-15
  57    0.0054757175695253
  58      0.29410031844545
  59     -0.29352134888493
  60      0.07771291146245
  61     0.044900919155971
  62    4.2041087652217e-17
  63     0.042157601201478
  64     0.024582145309602
  65    -3.0472325649414e-17
  66      0.38853434782399
  67    -6.5481494481324e-17
  68    5.4849547991516e-17
  69    -0.0028938846454591
  70    -0.004930529450655
  71    0.0054757175695187
  72      0.29410031844542
  73     -0.29352134888401
  74     0.077712911462456
  75    -0.044900919155956
  76    3.2059036012281e-18
  77     0.042157601201971
  78    -0.024582145309927
  79    8.2437501175555e-18
  80      0.38853434782398
  81    1.5183896772914e-16
  82    2.6118504810527e-17
  83    -0.0028938846454437
  84    0.0049305294506577
  85      0.15247969147307
  86      0.10017481506993
  87      0.15215340886285
  88     0.099400984872571
  89      0.15215340886274
  90     0.099400984872407
  91      0.15247969147313
  92      0.10017481507011
  93      0.15215340886278
  94     0.099400984872373
  95       0.1521534088628
  96     0.099400984872531
 Sym= A
 Ene=     2.091211724
 Spin= Alpha
 Occup=    0.00000
   1    -1.7438072146878e-14
   2    -2.6292821325032e-13
   3    2.3038577981975e-12
   4     -0.22441882670125
   5    8.9339063285469e-15
   6    6.0964773163775e-16
   7      0.26387844406024
   8    -1.4017136773522e-12
   9    1.8974305235413e-16
  10    1.2171867046538e-14
  11    8.4988097269818e-17
  12    2.7117045871452e-17
  13    4.2182530087955e-15
  14     -0.36782120766381
  15    -2.4140471686867e-06
  16    -0.00010841665289754
  17    0.00040571885889739
  18      0.11227530925977
  19      -0.1944383568879
  20    1.5793479148328e-16
  21     -0.13190646598571
  22      0.22887972572098
  23    -3.2933947780034e-16
  24    -0.00012826020397295
  25    1.5563799280576e-16
  26    -3.0503544601806e-16
  27       0.3186005964169
  28     -0.18374651680874
  29    -2.4140472030718e-06
  30    -0.00010841665335794
  31    0.00040571886325255
  32      0.11227530925979
  33      0.19443835688789
  34    -1.5329430339258e-16
  35     -0.13190646598798
  36     -0.22887972571951
  37    7.1723367088796e-17
  38    -0.00012826020397292
  39    -7.0619156214342e-16
  40    5.9176281362353e-16
  41       0.3186005964169
  42      0.18374651680873
  43    1.7840632289391e-14
  44    2.0731949272306e-13
  45    -2.1659934249892e-12
  46     -0.22441882670126
  47    -6.5077095382028e-17
  48    -5.7655413953406e-17
  49      0.26387844406042
  50    -1.3281999638327e-12
  51    2.0593513287189e-16
  52    6.9213575231191e-15
  53    -2.8188675158138e-16
  54    4.7795192522891e-16
  55    1.7398816408996e-14
  56      0.36782120766382
  57    2.4140471685504e-06
  58    0.00010841665290965
  59    -0.00040571885892199
  60      0.11227530925978
  61     -0.19443835688789
  62    -6.8709570240399e-17
  63      -0.1319064659856
  64      0.22887972572086
  65    -1.0654046839104e-16
  66    0.00012826020398733
  67    -6.3022233759723e-16
  68    3.125547266046e-16
  69      -0.3186005964169
  70      0.18374651680873
  71    2.4140472047544e-06
  72    0.00010841665338074
  73    -0.00040571886336771
  74       0.1122753092598
  75      0.19443835688789
  76    1.100790317824e-16
  77     -0.13190646598815
  78     -0.22887972571962
  79    -2.1340426726562e-16
  80    0.00012826020397882
  81    -1.4579617924798e-15
  82    -5.8557540568279e-16
  83     -0.31860059641691
  84     -0.18374651680871
  85    1.0564707856462e-13
  86    2.8747209661453e-13
  87    -8.9294963779322e-05
  88    -0.0002392104617557
  89    -8.9294963598539e-05
  90    -0.00023921046118238
  91    -7.7123347076729e-14
  92    -2.8556698070368e-13
  93    8.9294963810862e-05
  94    0.00023921046177126
  95    8.9294963610905e-05
  96    0.00023921046114581
 Sym= A
 Ene=     2.167097512
 Spin= Alpha
 Occup=    0.00000
   1     0.088264624741456
   2       1.1761125098669
   3      -11.252735850536
   4    -4.0180080613132e-13
   5    -0.068246112315056
   6    -1.284413028493e-16
   7    2.4967519441437e-12
   8       7.1168293141504
   9    -1.8578803633629e-16
  10    -0.026848491786849
  11    7.7765275618533e-17
  12    -4.9893927746183e-17
  13     0.031304257750409
  14    -9.0561737877258e-14
  15    -0.088273424672774
  16      -1.1754746331325
  17       11.257336432569
  18     0.058624850885922
  19     0.033714316045031
  20    -5.3444211849233e-17
  21      -6.1612516198963
  22      -3.5602148896783
  23    2.8015604369333e-16
  24     0.027699331457394
  25    1.7808627724052e-16
  26    -7.9841446854655e-17
  27      0.01513396589989
  28     0.026390560362101
  29     0.088273424672936
  30       1.1754746331287
  31      -11.257336432565
  32    -0.058624850886196
  33     0.033714316045717
  34    -8.5118026397189e-18
  35       6.1612516198942
  36      -3.5602148896798
  37    -1.4240504398968e-16
  38    -0.027699331456336
  39    -5.6581693082292e-17
  40    -1.052244198025e-16
  41    -0.015133965902774
  42     0.026390560366568
  43    -0.088264624741303
  44      -1.1761125098675
  45        11.25273585053
  46    2.4649359824447e-13
  47    -0.068246112315023
  48    -5.7926476836443e-18
  49    -4.4121293188453e-12
  50       7.1168293141543
  51    -2.6723971290109e-17
  52     0.026848491786282
  53    2.1759127570979e-16
  54    -1.8459418573456e-16
  55    -0.031304257745968
  56    2.3081639281865e-13
  57     0.088273424672964
  58       1.1754746331305
  59      -11.257336432573
  60     0.058624850886603
  61     0.033714316045212
  62    1.0558671027755e-16
  63       -6.161251619902
  64      -3.5602148896765
  65    -6.9736767967656e-17
  66    -0.027699331457537
  67    2.370446111773e-17
  68    -1.965657543691e-16
  69    -0.015133965902216
  70    -0.026390560366045
  71    -0.088273424672829
  72      -1.1754746331342
  73       11.257336432573
  74    -0.058624850887041
  75     0.033714316045114
  76    2.2353268975555e-17
  77       6.1612516199041
  78      -3.5602148896777
  79    2.4578009316655e-16
  80     0.027699331458039
  81    8.3355016448325e-16
  82    1.7866011786981e-16
  83     0.015133965900037
  84    -0.026390560363014
  85     -0.47666217393246
  86      -1.5730099474698
  87      0.47740216254675
  88       1.5711879138518
  89       -0.477402162542
  90      -1.5711879138532
  91       0.4766621739365
  92       1.5730099474723
  93     -0.47740216254344
  94      -1.5711879138542
  95      0.47740216254727
  96       1.5711879138539
 Sym= A
 Ene=     2.173430565
 Spin= Alpha
 Occup=    0.00000
   1     0.012837757818617
   2     -0.22649337470542
   3    -0.048696474050617
   4    8.7900658005091e-15
   5    -0.012919124418317
   6    1.2006258047216e-16
   7    -1.0002148972659e-13
   8     -0.20380153091095
   9    -2.2999207239438e-16
  10     0.031443845218461
  11    2.2156960223628e-16
  12    -1.0881115809469e-16
  13      0.37411383692556
  14    4.6225191744986e-15
  15     0.012862347239966
  16      -0.2259767578515
  17    -0.051271678590746
  18    -0.011135166613829
  19    -0.0064154016904813
  20    -1.7171785148263e-16
  21     -0.17453663175552
  22     -0.10121373073681
  23    4.7434400224161e-16
  24     0.031460286349205
  25    -7.6512934918874e-17
  26    2.6099183842619e-17
  27     -0.18720886757735
  28     -0.32411697568296
  29     0.012862347238913
  30     -0.22597675786548
  31    -0.051271678456318
  32    -0.011135166613119
  33    0.0064154016900622
  34    2.2721792667991e-16
  35     -0.17453663182919
  36      0.10121373077967
  37    -5.2853683129762e-16
  38     0.031460286349571
  39    -3.9385999570597e-17
  40    4.8609607078481e-17
  41     -0.18720886757717
  42      0.32411697568266
  43     0.012837757819671
  44     -0.22649337469142
  45       -0.048696474185
  46    -1.8484769176279e-14
  47     0.012919124419175
  48    1.6817607605586e-17
  49    1.5377677227469e-13
  50      0.20380153082573
  51    1.6592485010082e-17
  52     0.031443845218136
  53    -8.1949886628061e-17
  54    -2.9062910618962e-17
  55      0.37411383692599
  56    -1.3110088265806e-14
  57     0.012862347238913
  58      -0.2259767578655
  59    -0.051271678456229
  60     0.011135166613096
  61     0.006415401690093
  62    4.5679431053663e-18
  63       0.1745366318293
  64       0.1012137307794
  65    -9.522318519083e-17
  66     0.031460286349583
  67    -6.6400520079769e-17
  68    -1.7072744106081e-16
  69     -0.18720886757714
  70     -0.32411697568266
  71     0.012862347239966
  72     -0.22597675785147
  73    -0.051271678590734
  74     0.011135166613826
  75    -0.0064154016904875
  76    3.3238304025778e-17
  77      0.17453663175543
  78     -0.10121373073697
  79    9.3028919204778e-17
  80     0.031460286349196
  81    -3.6070811603784e-18
  82    -4.6827721918209e-17
  83     -0.18720886757733
  84      0.32411697568296
  85      0.35654158321516
  86     0.013693141124675
  87       0.3562279592646
  88     0.012994879457845
  89      0.35622795927034
  90     0.012994879476748
  91      0.35654158320949
  92     0.013693141105744
  93      0.35622795927032
  94     0.012994879476733
  95      0.35622795926458
  96     0.012994879457864
 Sym= A
 Ene=     2.307416945
 Spin= Alpha
 Occup=    0.00000
   1    -3.0821868887299e-13
   2    -2.9339976862656e-12
   3    1.2322798625032e-11
   4      0.21176878450366
   5    4.165034137606e-12
   6    -1.1136270045727e-16
   7     -0.71965933687664
   8    8.3093019649519e-12
   9    -9.7575776976711e-17
  10    -7.2451073796985e-12
  11    -5.5602344820514e-16
  12    -6.2812976892246e-16
  13    -1.0470911247437e-11
  14    -0.024453005388669
  15    -0.014255772921344
  16     -0.14455618173496
  17      0.79562024327824
  18      0.19350020561179
  19    -0.010459592246454
  20    -8.2343453900769e-17
  21    -0.078492978467682
  22      0.37022417120615
  23    5.292905999009e-16
  24     -0.27831605910629
  25    3.2931314682631e-16
  26    4.6246322731814e-16
  27      0.19132345192294
  28      0.35636572168948
  29    -0.014255772920844
  30     -0.14455618172941
  31      0.79562024324023
  32      0.19350020561211
  33     0.010459592255851
  34    7.6833407432933e-17
  35    -0.078492978474481
  36     -0.37022417123504
  37    -4.3612169734628e-16
  38     -0.27831605909922
  39    7.2302931241009e-16
  40    -9.1476089095446e-18
  41      0.19132345191681
  42     -0.35636572168081
  43    3.0440131204999e-13
  44    2.8671827895084e-12
  45    -1.1867940193903e-11
  46      0.21176878450369
  47    4.1338211518795e-12
  48    2.0621969770132e-16
  49     -0.71965933687701
  50    9.0050239368059e-12
  51    4.8748958090734e-16
  52    7.3755765375875e-12
  53    -5.5663304379929e-16
  54    1.3185498149851e-15
  55    1.0505524908448e-11
  56     0.024453005388724
  57     0.014255772921345
  58      0.14455618173493
  59      -0.7956202432782
  60      0.19350020561182
  61    -0.010459592246509
  62    4.8227562848526e-17
  63    -0.078492978467939
  64      0.37022417120658
  65    -5.6703592103528e-16
  66       0.2783160591063
  67    -1.3675438739042e-15
  68    3.8386477065607e-17
  69       -0.191323451923
  70     -0.35636572168944
  71     0.014255772920847
  72      0.14455618172951
  73     -0.79562024324074
  74      0.19350020561212
  75     0.010459592255799
  76    -2.8443808501209e-17
  77    -0.078492978474865
  78     -0.37022417123438
  79    -1.6620720310429e-16
  80      0.27831605909909
  81    -6.0694151895869e-16
  82    -1.4195717751555e-16
  83     -0.19132345191688
  84      0.35636572168077
  85    -1.312676824987e-11
  86    -3.9774057057694e-13
  87     -0.49284129004074
  88     0.030396109652674
  89     -0.49284129002875
  90     0.030396109649095
  91    1.3288507590162e-11
  92    6.4900462696708e-13
  93      0.49284129004074
  94     -0.03039610965269
  95      0.49284129002861
  96    -0.030396109649323
 Sym= A
 Ene=      2.30763622
 Spin= Alpha
 Occup=    0.00000
   1     0.016342591144126
   2      0.16560339394186
   3     -0.90086839241756
   4    4.7733916005532e-12
   5     -0.18783720647526
   6    3.2790192908832e-16
   7    -1.6221855498852e-11
   8     -0.14544045368243
   9    -1.7298868582775e-16
  10      0.32179775189313
  11    -2.6437120562282e-16
  12    1.8539491748493e-16
  13      0.46654937019303
  14    -5.6438369943614e-13
  15    0.0083619469667178
  16     0.085352409025042
  17     -0.47528181099395
  18     0.010226933968226
  19     -0.20554670517714
  20    2.615106783513e-16
  21     -0.35978521524684
  22      0.51014921833147
  23    -1.4172913396394e-16
  24       0.1608733570307
  25    5.5508309546313e-16
  26    -1.7671182310113e-17
  27     -0.13530194169454
  28     -0.19142713461968
  29    -0.0083619469673576
  30    -0.085352409031536
  31      0.47528181102981
  32    -0.010226933959545
  33      -0.2055467051766
  34    -5.058228360902e-17
  35      0.35978521524355
  36      0.51014921831454
  37    -6.7359189236179e-17
  38     -0.16087335704322
  39    1.7832076610369e-16
  40    5.5435215881874e-17
  41      0.13530194170318
  42      -0.1914271346357
  43    -0.016342591144126
  44     -0.16560339394198
  45      0.90086839241782
  46    4.8088835431137e-12
  47     -0.18783720647534
  48    1.6170086590963e-17
  49    -1.6320621811341e-11
  50     -0.14544045368191
  51    1.2555507219509e-16
  52     -0.32179775189312
  53    1.4721310312382e-16
  54    2.5279765348806e-16
  55     -0.46654937019305
  56    5.3896848920156e-13
  57    -0.0083619469667174
  58    -0.085352409025036
  59      0.47528181099387
  60     0.010226933968217
  61     -0.20554670517712
  62    -1.4809035005684e-17
  63     -0.35978521524685
  64      0.51014921833148
  65    7.696771532682e-17
  66     -0.16087335703073
  67    -3.0281438536159e-17
  68    2.4763631109599e-16
  69      0.13530194169456
  70      0.19142713461961
  71    0.0083619469673603
  72     0.085352409031567
  73     -0.47528181102996
  74     -0.01022693395948
  75     -0.20554670517665
  76    -7.6872560185721e-18
  77      0.35978521524317
  78      0.51014921831484
  79    -1.6189752276683e-16
  80      0.16087335704323
  81    -2.6293151885566e-16
  82    1.215758195753e-16
  83     -0.13530194170318
  84      0.19142713463575
  85      0.56986938824157
  86    -0.032797300721841
  87       0.2836967489144
  88    -0.020162285952468
  89     -0.28369674893661
  90     0.020162285953641
  91      -0.5698693882415
  92     0.032797300722057
  93     -0.28369674891437
  94     0.020162285952472
  95      0.28369674893661
  96    -0.020162285953893
 Sym= A
 Ene=     2.396449582
 Spin= Alpha
 Occup=    0.00000
   1    7.8713603140871e-14
   2    -3.662724052735e-12
   3    1.5218289184997e-12
   4      0.10976825048416
   5    2.3235113989845e-12
   6    -1.4534046168172e-16
   7     -0.26190946431232
   8    -1.8587615701807e-12
   9    1.4104089854591e-16
  10    -1.1703412173423e-12
  11    2.5843462077324e-16
  12    -1.3286358182184e-15
  13    -1.1200380900522e-12
  14      0.52297886355133
  15    -0.0079120116421853
  16      0.47934857951026
  17     -0.44465187586027
  18     -0.27868436028646
  19    -0.097545821904514
  20    -2.7064689119849e-16
  21      0.40232188457102
  22     0.080369565598447
  23    6.8464104559222e-16
  24      0.14015676236802
  25    7.6775610372332e-16
  26    -1.6648563858417e-15
  27     -0.29672883310496
  28    0.0090292783241889
  29    0.0079120116421214
  30     -0.47934857950643
  31      0.44465187585654
  32      0.27868436028507
  33    -0.097545821902204
  34    -5.3811717728675e-16
  35     -0.40232188456986
  36     0.080369565594214
  37    -4.2674943546934e-17
  38     -0.14015676236691
  39    -1.8122475467047e-15
  40    -1.317776891134e-15
  41      0.29672883310987
  42    0.0090292783284108
  43    4.822486259053e-14
  44    -4.1470284810945e-12
  45    5.7723233442895e-12
  46     -0.10976825048423
  47    -2.3974727324216e-12
  48    -6.1542898450357e-16
  49      0.26190946431253
  50    4.5148529961373e-12
  51    -7.3534400897833e-16
  52    -1.1235958178914e-12
  53    1.5818456212489e-15
  54    -1.0015929177939e-15
  55    -1.1475482549567e-12
  56      0.52297886355135
  57    -0.007912011642157
  58      0.47934857951072
  59     -0.44465187586416
  60      0.27868436028651
  61     0.097545821904556
  62    2.4875752054597e-16
  63     -0.40232188457341
  64    -0.080369565599844
  65    2.0646860558498e-17
  66      0.14015676236797
  67    8.7319007213012e-16
  68    -2.50651768451e-15
  69      -0.2967288331049
  70    0.0090292783242291
  71    0.0079120116420931
  72     -0.47934857950682
  73      0.44465187586074
  74     -0.27868436028513
  75     0.097545821902165
  76    2.3637332597759e-16
  77      0.40232188457219
  78    -0.080369565595326
  79    2.3519541270011e-16
  80      -0.1401567623668
  81    -1.3053425089187e-16
  82    -1.8562621218334e-15
  83       0.2967288331099
  84    0.0090292783283482
  85    -1.2288319310454e-12
  86    6.6550763951647e-13
  87      0.14199332777475
  88     -0.11806831675666
  89     -0.14199332777353
  90      0.11806831675567
  91    -1.0744486215132e-12
  92    1.2663293088164e-12
  93      0.14199332777448
  94     -0.11806831675731
  95     -0.14199332777338
  96      0.11806831675625
 Sym= A
 Ene=     2.396602768
 Spin= Alpha
 Occup=    0.00000
   1    -0.0091468239335788
   2      0.55329660474082
   3     -0.51262527089567
   4    7.3114817211844e-13
   5     -0.33505047629583
   6    -3.4114087204209e-17
   7    -1.7633924269638e-12
   8      0.44782021566741
   9    6.3597525860402e-16
  10      0.16169856525261
  11    -6.8378451914426e-16
  12    -3.2562513050322e-16
  13      0.16210231673604
  14    3.6848331282479e-12
  15    0.0045710361622478
  16     -0.27663852534859
  17      0.25624023900471
  18     0.097591305524956
  19      0.16605197972219
  20    2.1636167002991e-16
  21    -0.080372824816662
  22     -0.30870250093999
  23    -1.1429762304878e-16
  24    -0.080867775017211
  25    -3.8365034467061e-16
  26    -9.805070180677e-17
  27      -0.3518055439763
  28      0.29671105560147
  29    0.0045710361623422
  30     -0.27663852535564
  31      0.25624023901302
  32     0.097591305528931
  33     -0.16605197972356
  34    4.7372418757955e-17
  35    -0.080372824823201
  36      0.30870250094206
  37    -2.0256016827152e-16
  38    -0.080867775019245
  39    3.9062942096448e-16
  40    -2.6977315943908e-16
  41     -0.35180554397209
  42     -0.29671105560131
  43    -0.0091468239335739
  44       0.5532966047408
  45       -0.512625270897
  46    -8.2660343739753e-13
  47      0.33505047629581
  48    3.9988178818719e-17
  49    2.0749592731194e-12
  50     -0.44782021566853
  51    1.2880853831601e-16
  52      0.16169856525244
  53    -1.1369565995337e-16
  54    3.1926269216442e-16
  55       0.1621023167361
  56    3.6781397047785e-12
  57    0.0045710361622295
  58     -0.27663852534888
  59        0.256240239007
  60    -0.097591305525037
  61     -0.16605197972214
  62    -7.6307850180276e-17
  63      0.08037282481757
  64      0.30870250094059
  65    1.7676480638601e-16
  66    -0.080867775017297
  67    1.5414730283847e-17
  68    5.4173229225935e-16
  69     -0.35180554397623
  70      0.29671105560153
  71    0.0045710361623577
  72     -0.27663852535539
  73      0.25624023901134
  74    -0.097591305528898
  75      0.16605197972354
  76    -1.308270752672e-16
  77     0.080372824822222
  78     -0.30870250094108
  79    -4.736916080823e-16
  80    -0.080867775019194
  81    -1.1861681910066e-15
  82    1.8833717011527e-17
  83     -0.35180554397208
  84     -0.29671105560143
  85      0.16417834595618
  86     -0.13617175488875
  87    -0.082180442888091
  88     0.068215436178895
  89    -0.082180442890026
  90     0.068215436180816
  91      0.16417834595607
  92     -0.13617175488907
  93    -0.082180442888146
  94     0.068215436179104
  95    -0.082180442890193
  96     0.068215436180479
 Sym= A
 Ene=     2.466927397
 Spin= Alpha
 Occup=    0.00000
   1    -2.5619382590405e-16
   2    -5.4343998061907e-15
   3    4.7547899494239e-15
   4    -4.0208611448295e-15
   5    1.8489100778306e-15
   6     0.054796823025873
   7    -2.2625877704987e-15
   8    -5.9656535553413e-15
   9      0.30673807976052
  10    -4.5709506226418e-15
  11    3.7936071560601e-11
  12     -0.58826518753044
  13    2.6113215857568e-15
  14    -1.7280170979901e-17
  15    -3.8126760098411e-16
  16    -8.4739397038002e-15
  17    1.2865358406041e-14
  18    1.5024778576143e-15
  19    8.0968064115022e-16
  20    -0.027391148744659
  21    -8.5551861733198e-15
  22    -6.7055618032314e-15
  23     -0.15337089908665
  24    -5.8445231388268e-15
  25      0.39636452217189
  26    -0.098230470101217
  27    -2.9287451936221e-15
  28    -4.492106439532e-15
  29    -1.5256665581218e-16
  30    -1.2375239440658e-15
  31    -3.8129743450471e-15
  32    -1.6860294413933e-15
  33    -4.166921367627e-15
  34    -0.027391148733651
  35    -9.8389412161356e-16
  36    -1.4967946931137e-15
  37     -0.15337089902508
  38    -1.9627046216896e-15
  39      0.39636452208858
  40     0.098230470193125
  41    -1.678195777495e-15
  42    1.6429317475724e-15
  43    2.3735244157331e-16
  44    4.5634373163668e-15
  45    -1.973734632606e-15
  46    -3.5049242734238e-15
  47    1.3795674424823e-15
  48     0.054796823025881
  49    -2.1692362735355e-16
  50    -3.6769045595573e-15
  51      0.30673807976056
  52    4.1638703392726e-15
  53    -3.7922988834084e-11
  54      0.58826518753048
  55    -2.7160019223762e-15
  56    8.4133934509818e-16
  57    3.7935277364566e-16
  58    7.914293089498e-15
  59    -7.855637869295e-15
  60    2.5329264913335e-15
  61    1.2256409118074e-15
  62    -0.027391148744656
  63    -8.8228585674809e-15
  64    -5.9011391676902e-15
  65     -0.15337089908668
  66    6.5934952058504e-15
  67     -0.39636452217193
  68     0.098230470101201
  69    2.8454820748165e-15
  70    3.8474958549757e-15
  71    1.6849190894241e-16
  72    3.4487034629357e-15
  73    -4.3011936848923e-15
  74    -2.4762996314656e-15
  75    -4.969343199097e-15
  76    -0.027391148733651
  77    -2.892537795995e-15
  78    1.1503960149918e-15
  79     -0.15337089902504
  80    2.033020577981e-15
  81     -0.39636452208852
  82    -0.098230470193131
  83    2.5609992922819e-15
  84    -1.7147197257301e-15
  85    3.8688749267958e-16
  86    2.3360148347039e-15
  87    2.4390528207899e-15
  88    2.5442787426793e-15
  89    1.0606378430802e-15
  90    -1.3408476888556e-16
  91    -6.5701038458705e-16
  92    -1.4810488212874e-15
  93    -1.9967873705909e-15
  94    -2.8703651336844e-15
  95    -1.521536661665e-15
  96    -2.9295584511954e-16
 Sym= A
 Ene=     2.466961291
 Spin= Alpha
 Occup=    0.00000
   1    -2.9633469183848e-17
   2    3.2805089760502e-16
   3    2.0111508445995e-15
   4    3.3320224680127e-16
   5    -2.8849956981234e-16
   6    -6.3526997686646e-12
   7    -3.0624992978608e-16
   8    -1.1148006326054e-15
   9    -3.556761726935e-11
  10    1.529186775909e-16
  11      0.32706658419047
  12    6.8204076589943e-11
  13    2.1746982784471e-16
  14    -5.9606480950348e-16
  15    5.7483001780739e-17
  16    -1.544953328132e-16
  17    -2.1695168197718e-15
  18    -1.7113796473518e-16
  19    3.5647082517287e-16
  20     -0.04745659549691
  21    2.3422871704903e-15
  22    8.301769015677e-16
  23     -0.26564638217178
  24     3.29531646545e-16
  25      0.35943644874374
  26      0.39637238382429
  27    -2.9871351390392e-16
  28    4.1235597904886e-16
  29    -9.0981115179277e-17
  30    7.9140529062331e-16
  31    1.6623567833673e-15
  32    -3.408876103477e-16
  33    -6.9824584901894e-17
  34      0.04745659550326
  35    -1.0707515236439e-15
  36    1.4210552501703e-15
  37      0.26564638220735
  38    -3.7394441924042e-16
  39     -0.35943644883567
  40       0.3963723838015
  41    -7.6991333265042e-17
  42    -2.7501723111161e-16
  43    2.9292528438908e-17
  44    1.048531208583e-15
  45    -3.7619844186278e-15
  46    -4.5556267307199e-16
  47    9.2145673713224e-17
  48    -6.3548670109861e-12
  49    5.5671889992421e-16
  50    -1.7246017600057e-15
  51    -3.5570755332376e-11
  52    1.6141678960551e-16
  53     -0.32706658419049
  54    -6.8216637630538e-11
  55    5.5421673647446e-17
  56    -1.1142398174412e-15
  57    4.7332838454166e-17
  58    -1.8401401653083e-15
  59    4.2738446546802e-15
  60    -6.6210671741657e-16
  61    -3.9566251401396e-16
  62    -0.047456595496911
  63    1.9344630821901e-15
  64    6.3324652855335e-16
  65     -0.26564638217178
  66    -8.9764407563696e-17
  67     -0.35943644874374
  68     -0.39637238382428
  69    -3.1284899630513e-16
  70    4.3803530425853e-16
  71    1.0506525785059e-17
  72    2.317754892835e-16
  73    -2.4536563444543e-15
  74    -3.2590973925302e-16
  75    -7.2671841450953e-17
  76     0.047456595503261
  77    -3.2792975108716e-16
  78    1.7537207217969e-16
  79      0.26564638220735
  80    -4.3875322522528e-16
  81      0.35943644883565
  82     -0.39637238380151
  83    -2.9851396644282e-16
  84    -2.1159004491268e-16
  85    2.0169141634278e-16
  86    2.700187739615e-16
  87    -3.5355818103208e-17
  88    -1.0388688952457e-15
  89    -2.3238626188298e-17
  90    5.0449249335688e-16
  91    -1.3674125738961e-16
  92    -6.1813505721679e-17
  93    -3.4436637108973e-16
  94    4.3255025778906e-16
  95    -2.4259898972449e-16
  96    3.2550649457727e-16
 Sym= A
 Ene=     2.477292019
 Spin= Alpha
 Occup=    0.00000
   1    -2.1248105150771e-12
   2    -4.4210790025223e-11
   3    4.7756345226292e-11
   4      0.36062764729446
   5    1.3008680627521e-11
   6    4.7374098508611e-16
   7      0.15149444017843
   8    -5.0336159299861e-11
   9    4.8731761069007e-15
  10    -3.7228115122794e-11
  11    3.6553068427676e-16
  12    -8.5257540591311e-15
  13    2.4344298874945e-11
  14     0.029109096213478
  15     0.024396928289487
  16       0.5079997027937
  17     -0.56584573593948
  18    -0.039326721178171
  19     -0.23096982227787
  20    -5.3181417456118e-16
  21      0.54891299595571
  22      0.22961466250934
  23    -2.9776922124027e-15
  24      0.42471964857979
  25    5.9669479308322e-15
  26    -1.1720478053151e-16
  27        0.151538948167
  28        0.233333174036
  29     0.024396928291645
  30      0.50799970283845
  31     -0.56584573599241
  32    -0.039326721213145
  33      0.23096982224341
  34    -1.2415723091881e-16
  35      0.54891299599215
  36      -0.2296146625536
  37    -4.7217980975121e-16
  38      0.42471964861687
  39    3.2870382645965e-15
  40    2.0564866933308e-15
  41       0.1515389481759
  42     -0.23333317405896
  43    2.1220247224465e-12
  44    4.4302530066959e-11
  45    -4.7909540365192e-11
  46      0.36062764729446
  47    1.3086353110372e-11
  48    5.4064082861925e-16
  49      0.15149444017837
  50    -5.0691918689944e-11
  51    1.7252825145314e-15
  52    3.7157685674507e-11
  53    8.6478749165072e-16
  54    4.6785166021988e-15
  55    -2.4322599794397e-11
  56    -0.029109096213407
  57    -0.024396928289486
  58     -0.50799970279366
  59      0.56584573593938
  60    -0.039326721178151
  61     -0.23096982227787
  62    -1.0445072950908e-16
  63      0.54891299595563
  64      0.22961466250945
  65    -7.1518233998202e-17
  66     -0.42471964857978
  67    -2.1667761155939e-15
  68    1.7427293204967e-15
  69     -0.15153894816709
  70     -0.23333317403597
  71    -0.024396928291642
  72     -0.50799970283864
  73      0.56584573599268
  74    -0.039326721213235
  75      0.23096982224346
  76    -3.6828805565797e-16
  77      0.54891299599251
  78     -0.22961466255374
  79    -3.0740084952844e-15
  80     -0.42471964861683
  81    -5.8124608272256e-15
  82    3.4712633163727e-17
  83     -0.15153894817589
  84      0.23333317405894
  85    7.0932520876728e-12
  86    1.5436405251203e-11
  87    -0.082145696944696
  88      -0.1801395416106
  89    -0.082145696952078
  90     -0.18013954162676
  91    -7.1445679453173e-12
  92    -1.5576316261429e-11
  93     0.082145696944712
  94      0.18013954161061
  95     0.082145696952115
  96      0.18013954162689
 Sym= A
 Ene=     2.477360785
 Spin= Alpha
 Occup=    0.00000
   1     0.028126656339917
   2      0.58607881357119
   3     -0.64854735068371
   4    2.7315197609942e-11
   5     -0.17245524809603
   6    6.5011183575084e-16
   7    1.1414541848203e-11
   8      0.67897649748113
   9    2.2162923756074e-15
  10      0.49017567534135
  11    6.0218782230511e-17
  12    -5.0469786556767e-15
  13     -0.32130185197707
  14      2.2026071377e-12
  15     0.014109413226166
  16      0.29362924012732
  17     -0.33069687962023
  18      -0.2310000959307
  19      0.22750412344098
  20    -3.9720859956056e-16
  21      0.23227585013116
  22      0.28526404533556
  23    -7.4858481242387e-16
  24      0.24504171630112
  25    3.129462447439e-15
  26    -1.0269065706017e-15
  27     0.058510519809101
  28      0.15164892626259
  29    -0.014109413222467
  30     -0.29362924005024
  31      0.33069687953427
  32       0.2310000959247
  33      0.22750412347605
  34    -2.8263318484896e-16
  35     -0.23227585004776
  36      0.28526404530062
  37    -1.5139649568908e-15
  38     -0.24504171623674
  39    3.6396953970904e-15
  40    6.618060081024e-16
  41    -0.058510519786049
  42      0.15164892622729
  43    -0.028126656339919
  44     -0.58607881357147
  45      0.64854735068429
  46    2.7344296772905e-11
  47     -0.17245524809614
  48    4.9314347456661e-16
  49    1.153949486515e-11
  50      0.67897649748153
  51    2.8200467556705e-15
  52     -0.49017567534139
  53    -4.2598236150663e-18
  54    5.3015551981538e-15
  55      0.32130185197704
  56    -2.1842805026766e-12
  57     -0.01410941322617
  58     -0.29362924012716
  59      0.33069687961999
  60     -0.23100009593068
  61      0.22750412344106
  62    -2.3739391406056e-16
  63      0.23227585013119
  64      0.28526404533538
  65    -1.4971053901221e-15
  66     -0.24504171630118
  67    -3.6157302627358e-15
  68    7.3993325964354e-16
  69    -0.058510519809016
  70     -0.15164892626265
  71     0.014109413222473
  72      0.29362924005031
  73     -0.33069687953453
  74      0.23100009592475
  75      0.22750412347601
  76    -2.4644178875729e-16
  77     -0.23227585004814
  78      0.28526404530068
  79    -1.1397316148777e-15
  80      0.24504171623683
  81    -3.1574053479326e-15
  82    -9.334966830183e-16
  83      0.05851051978616
  84     -0.15164892622721
  85    -0.095246747397069
  86     -0.20746990257631
  87    -0.047969115762433
  88     -0.10469855927987
  89     0.047969115749992
  90      0.10469855925245
  91     0.095246747397051
  92      0.20746990257641
  93     0.047969115762418
  94       0.1046985592799
  95    -0.047969115749965
  96     -0.10469855925263
 Sym= A
 Ene=     2.637038874
 Spin= Alpha
 Occup=    0.00000
   1    -6.1844979882962e-17
   2    -1.717746398052e-16
   3    7.1296865093056e-15
   4    4.1347769676335e-17
   5    -2.215560767893e-16
   6    1.5379435825532e-11
   7    -3.9396706757755e-17
   8    -4.6534388379635e-15
   9    1.1530425812996e-11
  10    8.5287364436819e-17
  11      0.68704810324545
  12    -2.6794668267256e-11
  13    1.5690506431213e-16
  14    -9.1000913648624e-16
  15    1.5086188575479e-17
  16    -2.4256257854425e-17
  17    -8.2104623132057e-15
  18    5.8701020739846e-16
  19    2.8064620961123e-16
  20    -0.093067218756563
  21    4.3913797624068e-15
  22    3.6890289071755e-15
  23    -0.068856451451042
  24    -3.9275602155801e-16
  25      0.31115861038394
  26     -0.21701627133151
  27    4.8227514855067e-16
  28    4.5091757741207e-16
  29    -1.9082191994276e-16
  30    -2.1507783062008e-15
  31    1.2908666552286e-14
  32    1.0463024434113e-16
  33    1.4746168425049e-16
  34    -0.093067218771894
  35    -5.7386570146868e-15
  36    2.9766456431344e-15
  37    -0.068856451462072
  38    -1.1992329373005e-15
  39      0.31115861032148
  40      0.21701627117112
  41    -1.1092058172228e-16
  42    -2.9520044623649e-17
  43    9.3464313181718e-17
  44    1.585307252359e-15
  45    -1.1572744624275e-14
  46    -5.8834552933539e-16
  47    -4.8566680229249e-17
  48    -1.5379370402453e-11
  49    -9.630026270299e-17
  50    -6.0176304454753e-15
  51    -1.1539014769301e-11
  52    8.4839834675321e-16
  53      0.68704810324544
  54    -2.6804949621458e-11
  55    3.4949359594235e-16
  56    1.4191210958543e-16
  57    1.8638284499079e-17
  58    -1.938271229829e-16
  59    7.0332562657331e-15
  60    2.8594904932974e-16
  61    -4.1098694694154e-16
  62     0.093067218756561
  63    4.2113411710381e-15
  64    1.7512776117125e-15
  65     0.068856451451039
  66    8.565722821099e-17
  67      0.31115861038394
  68     -0.21701627133152
  69    2.7399711335301e-16
  70    4.851043443965e-16
  71    1.2752561662074e-17
  72    1.1154007094469e-15
  73    -7.229456740591e-15
  74    6.1795319935158e-16
  75    1.1459187126085e-16
  76     0.093067218771898
  77    -4.2519955226179e-15
  78    9.4329245125066e-16
  79     0.068856451462082
  80    6.781054138461e-16
  81       0.3111586103215
  82      0.21701627117111
  83    -7.3828901877227e-16
  84    6.6973835409732e-17
  85    4.0960114693544e-16
  86    1.1248152229904e-15
  87    -7.9574644295314e-16
  88    -1.669801508653e-15
  89    -2.943112390908e-16
  90    1.3612891519042e-15
  91    3.446812872643e-16
  92    -1.2404450037403e-15
  93    2.8775999390955e-16
  94    7.9780874757408e-16
  95    2.1203019239095e-16
  96    -5.8591169023908e-16
 Sym= A
 Ene=     2.637045368
 Spin= Alpha
 Occup=    0.00000
   1    3.6826995963935e-17
   2    1.7840665945567e-16
   3    -1.9181107599684e-15
   4    -1.6517954477988e-16
   5    2.5144767570467e-16
   6     -0.10749108786651
   7    -1.1069287949612e-15
   8    9.3994009739122e-16
   9    -0.079779378688584
  10    1.7224354263566e-16
  11    9.8228846216412e-11
  12      0.18622016726091
  13    9.0961383984539e-17
  14    1.8812255755558e-15
  15    2.2873664965665e-18
  16    1.2838725660374e-15
  17    -2.8293714133924e-16
  18    -9.1325999280783e-16
  19    1.5773565530928e-16
  20    -0.053715818020242
  21    -1.2889760514954e-15
  22    1.1044112721031e-16
  23    -0.039488596917717
  24    5.6082802115431e-16
  25     -0.21735203921738
  26      0.56156891672437
  27    -5.7977811452109e-16
  28    -4.1638977147426e-16
  29    5.6356660980515e-17
  30    -1.2416344923628e-15
  31    -8.4481184847944e-16
  32    6.8193906259756e-16
  33    -2.288398345644e-16
  34     0.053715817993631
  35    7.8097829619807e-16
  36    9.8643196506761e-16
  37     0.039488596898031
  38    -2.9584625774232e-16
  39      0.21735203930634
  40      0.56156891678643
  41    7.4648408685734e-16
  42    1.0247597765177e-17
  43    -9.4815677623405e-18
  44    -3.3501149775644e-16
  45    1.4267704918675e-15
  46    -2.1729218156495e-17
  47    -3.6894722435543e-17
  48      0.10749108786651
  49    1.8594480767206e-15
  50    8.5186412505613e-16
  51     0.079779378688579
  52    -6.9266372120446e-17
  53    9.8227465303288e-11
  54      0.18622016726089
  55    7.9246273597637e-17
  56    1.8839314002336e-15
  57    -1.6197817009419e-17
  58    1.5504948544389e-15
  59    -3.4212905031634e-15
  60    5.7532584557618e-16
  61    7.0362183677429e-18
  62     0.053715818020242
  63    -2.3786007196173e-17
  64    -1.8680946783113e-15
  65     0.039488596917717
  66    4.9711877752552e-16
  67     -0.21735203921737
  68      0.56156891672437
  69    -6.2030730599104e-16
  70    -1.4347669481885e-16
  71    -9.611364678032e-17
  72    -1.9165707176539e-15
  73    4.8580701288304e-15
  74    -8.3272558839032e-16
  75    1.218966381907e-16
  76     -0.05371581799363
  77    4.0135992504298e-17
  78    -1.6687317280173e-15
  79    -0.039488596898025
  80    -1.128576863291e-15
  81      0.21735203930635
  82      0.56156891678641
  83    6.0135845298839e-16
  84    -4.8380135844332e-16
  85    -4.1618044228313e-17
  86    -6.4923342638465e-17
  87    1.0822652250534e-15
  88    1.1916495556977e-16
  89    -5.7860150021546e-16
  90    6.4826706933512e-16
  91    1.2765334021699e-16
  92    2.0255081124121e-16
  93    6.7515201329236e-16
  94    -4.2130801588319e-16
  95    -1.2817914116476e-15
  96    6.5101298915454e-17
 Sym= A
 Ene=     2.645541612
 Spin= Alpha
 Occup=    0.00000
   1    -1.0147419163165e-17
   2    -2.2973788684635e-16
   3    1.7943046061193e-15
   4    8.1405664839732e-16
   5    -2.0984183599301e-17
   6    -0.034200920896598
   7    -1.0757807313065e-15
   8    -7.5567755808585e-16
   9     -0.36208713240152
  10    -8.6864012788931e-17
  11    2.440717120614e-13
  12      0.49147096796667
  13    9.8418340675571e-17
  14    1.4481469110225e-15
  15    6.8543364841861e-17
  16    3.1221273586781e-15
  17    -5.2998213832727e-15
  18    -9.1653355951791e-16
  19    -6.6407373415739e-16
  20     0.034318016334484
  21    3.8192727429209e-15
  22    2.8969911050594e-15
  23      0.36218396865328
  24    1.496418499619e-15
  25     -0.42560397031494
  26     -0.24624915723119
  27    9.1796635543254e-16
  28    7.8843217035854e-16
  29    1.8290689271701e-16
  30     1.77378353047e-15
  31    -1.6581338642176e-15
  32    -2.719643072809e-16
  33    5.576027874902e-16
  34    -0.034318016334544
  35    9.9778837798826e-16
  36    2.8824199787456e-15
  37     -0.36218396865332
  38    2.5003770396147e-15
  39      0.42560397031514
  40     -0.24624915723105
  41     3.82602357782e-16
  42    -8.8208428748983e-16
  43    5.7995527036538e-17
  44     3.01774154852e-16
  45    -3.3145994088997e-15
  46    2.0066669094311e-15
  47    1.1112158001419e-16
  48     0.034200920896594
  49    4.7727312654434e-15
  50    -2.925510464031e-15
  51       0.3620871324015
  52    6.1498121570349e-16
  53    2.3944482007247e-13
  54      0.49147096796661
  55    -2.3465461229241e-16
  56    8.8563289611008e-16
  57    -2.5833750362431e-16
  58    -2.201462218268e-15
  59    6.0210602784057e-15
  60    1.9835488399452e-16
  61    -1.3591999034677e-15
  62    -0.034318016334481
  63    4.6217997543087e-15
  64    -1.265806279803e-15
  65     -0.36218396865328
  66    -2.5887691455041e-15
  67     -0.42560397031492
  68     -0.24624915723121
  69    -1.4041935009573e-16
  70    -9.2710919420041e-16
  71    -3.1042509699612e-17
  72    -3.4047869448681e-15
  73    2.6059519685061e-15
  74    -1.0474066226667e-15
  75    7.4523266571508e-16
  76      0.03431801633455
  77    2.1148627406494e-15
  78    -2.8738179400867e-15
  79      0.36218396865334
  80    -1.8758600329829e-15
  81      0.42560397031517
  82     -0.24624915723105
  83    -1.4622806273655e-15
  84    1.0881243793359e-15
  85    2.3422278779785e-16
  86    -3.0752275149425e-17
  87    -4.9292898133163e-16
  88    -1.1911925692009e-15
  89    5.7557222663364e-16
  90    2.0775724093887e-16
  91    5.7034713051267e-17
  92    -1.1305902452454e-15
  93    -3.8937207970863e-16
  94    1.2724745964536e-15
  95    4.9191282448207e-16
  96    1.0416207826473e-15
 Sym= A
 Ene=     2.880747656
 Spin= Alpha
 Occup=    0.00000
   1    1.3925059159585e-10
   2    3.581592590515e-10
   3    -4.7345990084361e-09
   4      0.26202133507699
   5    2.5912627846759e-10
   6    1.4115670633618e-16
   7      0.58717808444326
   8    2.2116686428904e-09
   9    -4.6410496601031e-16
  10    1.1401032555939e-09
  11    -5.3756977907706e-16
  12    5.0967071365496e-16
  13       1.371275914e-10
  14     -0.34805235679998
  15     0.074308150643999
  16      0.19106414871991
  17      -2.5270368171909
  18     0.054453358603802
  19       0.1826362880198
  20    5.7567622919156e-17
  21      0.87624127183908
  22      0.84363944536141
  23    3.8359159605341e-16
  24      0.60838616338152
  25    -9.1774510922694e-16
  26    -7.0589055293722e-16
  27      0.11398038710681
  28     -0.15039105187622
  29    -0.074308150783338
  30     -0.19106414907838
  31       2.5270368219287
  32    -0.054453359197314
  33       0.1826362875114
  34    -1.9225020592163e-16
  35     -0.87624127457938
  36      0.84363944503945
  37    -2.2897070345616e-16
  38      -0.6083861645224
  39    5.6508229417611e-16
  40    -3.7999966926073e-16
  41     -0.11398038619117
  42     -0.15039105150576
  43    1.394110409778e-10
  44    3.5812169921471e-10
  45    -4.7399174990856e-09
  46     -0.26202133507716
  47    -2.5975530756373e-10
  48    1.3167150726706e-17
  49     -0.58717808444321
  50    -2.2128644647537e-09
  51    2.6591281242374e-16
  52    1.1416856099671e-09
  53    3.0804869196625e-16
  54    2.8176753062683e-16
  55    1.3731691552178e-10
  56     -0.34805235680028
  57     0.074308150643841
  58      0.19106414871964
  59      -2.5270368171856
  60    -0.054453358603487
  61     -0.18263628801952
  62    -1.6017319008198e-18
  63     -0.87624127183778
  64     -0.84363944536084
  65    -2.0979160256216e-16
  66      0.60838616337991
  67    -2.2787675398374e-17
  68    -3.2498016803753e-16
  69      0.11398038710684
  70     -0.15039105187603
  71    -0.074308150783171
  72     -0.19106414907845
  73       2.5270368219237
  74     0.054453359196763
  75     -0.18263628751118
  76    -3.7794755989588e-18
  77        0.876241274578
  78     -0.84363944503878
  79    2.1580324440133e-16
  80     -0.60838616452076
  81    4.2824381248424e-17
  82    -3.3676595362862e-16
  83     -0.11398038619143
  84     -0.15039105150576
  85    4.2898833456662e-10
  86    -6.4000565679639e-10
  87      0.22873208606969
  88     -0.34155499636755
  89     -0.22873208649849
  90      0.34155499700693
  91    4.2978981487809e-10
  92    -6.4003667763096e-10
  93      0.22873208606889
  94     -0.34155499636741
  95     -0.22873208649776
  96      0.34155499700667
 Sym= A
 Ene=     2.880760198
 Spin= Alpha
 Occup=    0.00000
   1    -0.085808229742147
   2     -0.22057879592632
   3       2.9175158999969
   4    4.2563386103896e-10
   5     -0.15977648591834
   6    -1.4754441934914e-16
   7    9.5316309218172e-10
   8      -1.3624380364265
   9    -6.8609330468909e-17
  10     -0.70262118755702
  11    1.6088559403106e-16
  12    2.0107159382524e-16
  13    -0.084506386796678
  14    -5.6544592206404e-10
  15     0.042904126140511
  16      0.11042370239428
  17       -1.458925106214
  18      0.18271436087594
  19     -0.15654040321134
  20    -1.8876205228523e-17
  21      0.84382748025512
  22    -0.099154885669846
  23    -4.921705411867e-18
  24       0.3512944232459
  25    -3.2938365810173e-16
  26    3.935054086487e-16
  27     -0.28191175433215
  28      0.11404986355522
  29     0.042904125899367
  30      0.11042370177378
  31      -1.4589250980136
  32      0.18271436069952
  33      0.15654040380401
  34    -4.4807577741237e-17
  35      0.84382747741148
  36     0.099154888408912
  37    -4.3355143295059e-17
  38      0.35129442127182
  39    4.6538226442688e-16
  40    6.0779159200897e-16
  41     -0.28191175470215
  42     -0.11404986404343
  43    -0.085808229742318
  44     -0.22057879592649
  45       2.9175159000035
  46    -4.2536819921825e-10
  47       0.1597764859188
  48    1.5942989596871e-17
  49    -9.5342353906263e-10
  50        1.362438036429
  51    3.7566842525028e-17
  52     -0.70262118755866
  53    8.2816171947238e-16
  54    5.1271457858828e-17
  55    -0.084506386796845
  56    -5.6499018566159e-10
  57     0.042904126140682
  58      0.11042370239464
  59       -1.458925106221
  60     -0.18271436087621
  61      0.15654040321092
  62    5.0154355553404e-17
  63     -0.84382748025725
  64     0.099154885668792
  65    -4.0772597369757e-17
  66      0.35129442324756
  67    3.2516538217402e-16
  68    -5.821954914639e-16
  69     -0.28191175433192
  70      0.11404986355488
  71     0.042904125899181
  72      0.11042370177402
  73      -1.4589250980075
  74     -0.18271436069894
  75     -0.15654040380429
  76    8.1611831352448e-17
  77     -0.84382747740918
  78     -0.09915488841038
  79    1.5654498978535e-16
  80      0.35129442127014
  81    9.4301428877847e-17
  82    -3.1131285291638e-16
  83     -0.28191175470203
  84      -0.1140498640435
  85     -0.26443888293824
  86      0.39414476781552
  87      0.13204873306604
  88       -0.196893441627
  89      0.13204873232395
  90     -0.19689344051809
  91       -0.264438882939
  92      0.39414476781611
  93      0.13204873306682
  94     -0.19689344162735
  95      0.13204873232329
  96     -0.19689344051737
 Sym= A
 Ene=     3.000141267
 Spin= Alpha
 Occup=    0.00000
   1    7.9815852609797e-16
   2    -3.3041291530549e-15
   3    -4.255693865628e-14
   4    -7.5160383244073e-15
   5    4.9023599244626e-15
   6    4.3894663516994e-16
   7    -1.777922520489e-14
   8    1.0355344067949e-14
   9    2.6228205347554e-15
  10    4.0047858962685e-15
  11     -0.55379076998345
  12    -3.1515150254635e-15
  13    8.9756404618368e-15
  14    1.1340697424968e-14
  15    -3.020369838032e-16
  16    -2.1824850364433e-15
  17    2.5536099104066e-14
  18    -3.2071284883352e-15
  19    4.7284937527786e-15
  20    -7.054831443403e-06
  21    -2.7744416765217e-14
  22    2.1390640519152e-14
  23    -4.3809425257439e-07
  24    -1.8220922128082e-15
  25     -0.27690710900415
  26      0.47959718637995
  27    2.1342031454828e-14
  28    -9.2841909143596e-15
  29    -9.0544171622792e-17
  30    7.8243254360517e-15
  31    -8.4795596488087e-15
  32    5.2750367799802e-16
  33    9.6697632672654e-15
  34    7.0548314438984e-06
  35    2.3454447354332e-14
  36    6.0632619482263e-15
  37    4.3809425058091e-07
  38    -2.7320322004388e-16
  39      0.27690710900416
  40      0.47959718637996
  41    -6.358450040526e-15
  42    -1.0367596359751e-14
  43    -1.5177344062016e-15
  44    3.8306058755408e-15
  45    5.8545915583604e-14
  46    -3.0309950481745e-15
  47    7.051493033482e-15
  48    1.2010683146064e-15
  49    -1.2543803049027e-14
  50    2.1813941366885e-14
  51    -5.4789086774052e-16
  52    -8.3579013267587e-15
  53      0.55379076998346
  54    6.1528618269719e-16
  55    1.0330622428827e-14
  56    -1.0327741029264e-14
  57    3.6130494092002e-16
  58    1.708260532025e-15
  59    -2.559832150234e-14
  60    -8.034463014918e-15
  61    1.2391886678535e-14
  62    -7.0548314427626e-06
  63    -2.6359490573917e-14
  64    1.6889488055208e-14
  65    -4.3809425115395e-07
  66    1.6966080002201e-15
  67      0.27690710900415
  68     -0.47959718637996
  69    -1.6081193062978e-14
  70    1.1136894762026e-14
  71    7.3199419061124e-16
  72    -7.9968080084363e-15
  73    -7.3397031535824e-15
  74    -4.6494991358101e-15
  75    4.3513903853833e-15
  76    7.0548314439719e-06
  77    1.2446436250169e-14
  78    7.8142657382356e-15
  79    4.3809425001185e-07
  80    4.4426517669298e-15
  81     -0.27690710900416
  82     -0.47959718637996
  83    1.3663556602381e-14
  84    -2.7204931513102e-15
  85    6.3343150282809e-15
  86    -4.3346470758765e-15
  87    -1.482304206927e-15
  88    3.3022496022182e-15
  89    -4.4458487009168e-15
  90    -2.2046924874044e-15
  91    2.0930595734912e-15
  92    3.8070425622897e-15
  93    -8.8376348821087e-16
  94    -2.8214683742287e-15
  95    -1.8939963653731e-15
  96    2.2459948125832e-15
 Sym= A
 Ene=     3.073078569
 Spin= Alpha
 Occup=    0.00000
   1    -0.032246641864347
   2     0.027784001329082
   3       0.7923929086811
   4    1.489992500539e-12
   5     -0.10810548667473
   6    1.3551122529434e-16
   7    1.1909511422299e-12
   8     -0.54698160982933
   9    -2.1711674317856e-16
  10      -0.2165725451193
  11    6.7415354302883e-15
  12    2.2977349831059e-16
  13      0.76782328492441
  14    -8.2359517610515e-13
  15     0.016133450152901
  16    -0.013965571377469
  17     -0.39630595451434
  18      0.21902004802322
  19     -0.27138923391368
  20    -7.3760097390687e-17
  21      0.24559583263184
  22      0.12139471513718
  23    2.409071832388e-16
  24      0.10836804348763
  25    3.3441719907391e-15
  26    -6.0481313015801e-15
  27      0.22637464029581
  28      0.31242066233732
  29     0.016133450153464
  30    -0.013965571373908
  31     -0.39630595455851
  32      0.21902004802404
  33      0.27138923391387
  34    -3.5627556061627e-18
  35      0.24559583265181
  36     -0.12139471514965
  37    -7.5548379526206e-17
  38      0.10836804349067
  39    -3.4620048021831e-15
  40    -6.1291923309242e-15
  41      0.22637464029445
  42     -0.31242066233304
  43    -0.032246641864997
  44     0.027784001325226
  45      0.79239290872717
  46    -6.0544714221784e-13
  47      0.10810548667541
  48    -1.6535530071544e-17
  49    1.1909047710111e-12
  50      0.54698160985512
  51    3.3256633851492e-17
  52     -0.21657254512298
  53    -7.0005081128653e-15
  54    3.0577628332644e-17
  55      0.76782328492334
  56    9.8374707987888e-13
  57     0.016133450153541
  58    -0.013965571373527
  59     -0.39630595456008
  60     -0.21902004802334
  61      0.27138923391265
  62    -2.8152399490451e-17
  63     -0.24559583265307
  64     -0.12139471515195
  65    -4.5275314282927e-17
  66      0.10836804349127
  67    -3.5212609990501e-15
  68    5.9739102187526e-15
  69      0.22637464029674
  70      0.31242066233556
  71     0.016133450152693
  72    -0.013965571376812
  73     -0.39630595450891
  74     -0.21902004802265
  75     -0.27138923391461
  76    3.6750971658474e-18
  77     -0.24559583262903
  78      0.12139471513675
  79    6.3328606369411e-17
  80      0.10836804348632
  81    3.5056000502506e-15
  82    5.9399201641658e-15
  83        0.226374640295
  84     -0.31242066233373
  85      0.33005228707804
  86    0.0061757631864443
  87       -0.164740770698
  88    -0.0030553245885528
  89      -0.1647407706956
  90    -0.0030553245944941
  91      0.33005228707719
  92    0.0061757631923475
  93      -0.1647407706972
  94    -0.0030553245944209
  95     -0.16474077069665
  96    -0.0030553245883974
 Sym= A
 Ene=      3.07314979
 Spin= Alpha
 Occup=    0.00000
   1    -4.8850298758186e-13
   2    -2.6666778603234e-12
   3    3.5778361813673e-11
   4       0.3978262186319
   5    -7.1811680232241e-13
   6    3.0580054245652e-16
   7     0.019307102289408
   8    -1.8752463801333e-11
   9    -9.8177314039187e-17
  10    -2.6950816013537e-12
  11    -2.7201006276667e-15
  12    -2.6150349759123e-16
  13    -2.7379861073686e-12
  14     0.046206797673959
  15     0.027960133670486
  16    -0.023954179529698
  17     -0.68778274148173
  18    -0.018589853557213
  19      0.21913710652153
  20    3.6281818145295e-17
  21      0.40481120360714
  22      0.24750774007979
  23    -1.01940376804e-17
  24      0.18780671053684
  25    -1.0353131655933e-15
  26    2.3553360369776e-15
  27      0.31260038853258
  28      0.58717813936402
  29    -0.027960133670645
  30     0.023954179530411
  31      0.68778274148604
  32     0.018589853555312
  33      0.21913710651997
  34    -1.7814374825596e-16
  35     -0.40481120360923
  36      0.24750774007927
  37    2.1920112328111e-16
  38     -0.18780671053781
  39    8.8598184102263e-16
  40    2.2339143485552e-15
  41     -0.31260038853286
  42      0.58717813936628
  43    6.4411190113438e-13
  44    2.4722194914926e-12
  45    -3.9444839667669e-11
  46     -0.39782621863299
  47    -1.2525876626394e-12
  48    -1.8235283583239e-16
  49    -0.019307102292387
  50    -2.1456693053767e-11
  51    -2.3999801016017e-17
  52    3.7386664656597e-12
  53    1.8644300633705e-15
  54    -9.5395523785364e-17
  55    -1.2185501170236e-12
  56     0.046206797671729
  57     0.027960133669516
  58    -0.023954179536126
  59     -0.68778274141158
  60     0.018589853557858
  61     -0.21913710652116
  62    -5.9481661120221e-17
  63     -0.40481120357256
  64     -0.24750774005996
  65    1.3190988659549e-16
  66      0.18780671053129
  67    1.0520737238242e-15
  68    -1.3059422417724e-15
  69      0.31260038853349
  70      0.58717813936554
  71    -0.027960133669515
  72     0.023954179535581
  73      0.68778274141101
  74    -0.018589853557529
  75     -0.21913710651996
  76    -1.3018174264216e-16
  77      0.40481120357279
  78     -0.24750774006179
  79    -2.8263347252252e-16
  80     -0.18780671053138
  81    -1.5241646652515e-15
  82    -1.8013845593115e-15
  83     -0.31260038853558
  84      0.58717813936647
  85    -1.6610655579853e-12
  86    4.5732947094196e-12
  87     -0.28553331536922
  88    -0.0054994982618333
  89      0.28553331536993
  90    0.0054994982619222
  91    -6.7898506235166e-14
  92    -4.609140683729e-12
  93     -0.28553331537048
  94    -0.0054994982528095
  95       0.2855333153715
  96    0.0054994982526834
 Sym= A
 Ene=     3.085408124
 Spin= Alpha
 Occup=    0.00000
   1    1.3405333943601e-12
   2    8.2532316699722e-12
   3    -9.4326387482077e-11
   4      0.41443084463776
   5    1.2778940132785e-12
   6    -1.1440284685307e-16
   7       1.2254040292905
   8    5.3587245260185e-11
   9    8.963835426093e-17
  10    7.5487405190592e-12
  11    -6.5570922938555e-15
  12    5.8808461470232e-16
  13    1.5153120728681e-12
  14      -0.8610599204283
  15     0.031757023304518
  16      -0.2346136632043
  17       -1.016209295516
  18      0.30239578964475
  19    -0.064672024751064
  20    9.8312245362994e-17
  21      0.37231692644873
  22     -0.49254098136122
  23    -3.4052506965527e-16
  24      0.17405705186254
  25    -3.5161848035544e-15
  26    6.0595184899105e-15
  27     -0.34941621619348
  28      0.25585525367514
  29     0.031757023307294
  30      -0.2346136631904
  31       -1.016209295708
  32      0.30239578964767
  33     0.064672024747489
  34    1.1275018954634e-16
  35      0.37231692653551
  36      0.49254098130442
  37    1.3512258904106e-16
  38      0.17405705187789
  39    3.2394047948139e-15
  40    5.7499242767351e-15
  41     -0.34941621619253
  42     -0.25585525366788
  43    -1.2165435614608e-12
  44    -8.0530712021138e-12
  45    9.0442618411003e-11
  46      0.41443084463652
  47    1.0270060461346e-12
  48    1.1511756784201e-16
  49       1.2254040292904
  50    5.1048531185287e-11
  51    -4.1887690711221e-17
  52    -6.7225591048372e-12
  53    6.5935168767367e-15
  54    -1.5927750176481e-17
  55    -3.0810088224601e-12
  56      0.86105992042815
  57    -0.031757023304476
  58      0.23461366320428
  59       1.0162092955149
  60      0.30239578964529
  61    -0.064672024752294
  62    -4.953341400151e-17
  63      0.37231692644852
  64     -0.49254098136216
  65    -1.2137395155044e-16
  66     -0.17405705186226
  67    3.1863033885091e-15
  68    -5.9946548328698e-15
  69       0.3494162161939
  70     -0.25585525367434
  71    -0.031757023307459
  72      0.23461366319024
  73       1.0162092957129
  74      0.30239578964823
  75     0.064672024747638
  76    9.9700311708129e-18
  77      0.37231692653829
  78      0.49254098130287
  79    2.1060474494253e-16
  80     -0.17405705187899
  81    -3.047943055843e-15
  82    -6.0972589277642e-15
  83      0.34941621619146
  84      0.25585525367013
  85    1.2726841857188e-12
  86    -1.213962263666e-11
  87     0.069092494931106
  88    -0.033999186878582
  89     0.069092494935619
  90    -0.033999186902537
  91    -1.8735617678179e-12
  92    1.1678110008312e-11
  93    -0.069092494931492
  94       0.0339991868786
  95    -0.069092494934633
  96     0.033999186902984
 Sym= A
 Ene=     3.085497263
 Spin= Alpha
 Occup=    0.00000
   1     0.038479436576515
   2     -0.26111211437458
   3      -1.2997759767103
   4    1.4636470946776e-12
   5      0.26737073720335
   6    -6.7237970495518e-18
   7    3.3625749937236e-12
   8      0.15777433892051
   9    -1.1333793343979e-16
  10      0.21099348804395
  11    1.2001177975278e-14
  12    -1.1276065734785e-17
  13     -0.05109760098896
  14    -2.2650487255684e-12
  15     0.016521772378639
  16     -0.14529785009963
  17     -0.46006594465531
  18    -0.066794508744994
  19      0.37575285480548
  20    -1.0199433856434e-16
  21      -0.5529724327252
  22      0.90604445142807
  23    1.3116991438488e-16
  24     0.090510714047273
  25    5.8412684472568e-15
  26    -1.0317442031908e-14
  27      0.66066380086226
  28      -0.3468917460543
  29    -0.016521772378448
  30      0.14529785009835
  31      0.46006594464937
  32     0.066794508746818
  33       0.3757528548061
  34    -2.3043335222496e-17
  35      0.55297243272763
  36      0.90604445143053
  37    -6.0952092742733e-17
  38    -0.090510714046207
  39    -5.843722729214e-15
  40    -1.0287069899715e-14
  41     -0.66066380086397
  42     -0.34689174605597
  43    -0.038479436576561
  44      0.26111211437459
  45       1.2997759767116
  46    7.3859588849066e-13
  47      0.26737073720347
  48    -6.292068645023e-18
  49    3.1116616050172e-12
  50      0.15777433892143
  51    3.3692040509635e-17
  52     -0.21099348804425
  53    -1.1798453817657e-14
  54    6.3195051594279e-17
  55     0.051097600989657
  56    2.3034416955254e-12
  57    -0.016521772378554
  58      0.14529785009967
  59      0.46006594465292
  60    -0.066794508745182
  61      0.37575285480534
  62    -5.8648982227541e-18
  63     -0.55297243272657
  64      0.90604445142741
  65    -5.4819481420392e-17
  66    -0.090510714046707
  67    -5.9656609309393e-15
  68    1.021476178783e-14
  69     -0.66066380086157
  70      0.34689174605561
  71     0.016521772378409
  72     -0.14529785009843
  73     -0.46006594464816
  74     0.066794508746565
  75       0.3757528548054
  76    3.0727922205258e-17
  77      0.55297243272808
  78      0.90604445143016
  79    9.1488125960966e-17
  80     0.090510714045933
  81    6.0904001257228e-15
  82    1.0284838644519e-14
  83      0.66066380086357
  84      0.34689174605666
  85     0.082238017260818
  86    -0.055404145847806
  87     0.037829521456927
  88    -0.003769498095019
  89    -0.037829521456694
  90    0.0037694980947128
  91    -0.082238017260528
  92     0.055404145847984
  93    -0.037829521457521
  94    0.0037694980948718
  95     0.037829521457025
  96    -0.0037694980947987
 Sym= A
 Ene=     3.089435728
 Spin= Alpha
 Occup=    0.00000
   1    -0.099507858959654
   2     -0.54365145352316
   3       6.9523009662867
   4    3.4337508603239e-12
   5     -0.13071617012564
   6    -1.2856164599388e-16
   7    1.628542478246e-11
   8      -3.8441367409411
   9    2.6213411653975e-17
  10     -0.54968796060234
  11    -2.1426341975028e-15
  12    -5.4059639703248e-17
  13      -0.1565920240063
  14    -1.2198494261764e-11
  15      0.10050948675161
  16       0.5364158087423
  17      -6.9856480076605
  18      0.11627677405051
  19     0.074666353858347
  20    -3.4674328279915e-17
  21       3.3213114574342
  22       1.9404845196877
  23    5.8675829924756e-17
  24      0.55512821852969
  25    -1.0847655723042e-15
  26    1.7006333477972e-15
  27    -0.065764363968775
  28     -0.14101991739762
  29     -0.10050948675047
  30     -0.53641580874839
  31       6.9856480076231
  32     -0.11627677403998
  33     0.074666353862346
  34    7.4459202227936e-17
  35      -3.3213114574194
  36       1.9404845197019
  37    5.0824077844574e-17
  38     -0.55512821852311
  39    6.8476411962095e-16
  40    1.3436866775683e-15
  41     0.065764363959733
  42     -0.14101991740724
  43     0.099507858959151
  44      0.54365145352201
  45      -6.9523009662701
  46    8.0267364029206e-12
  47     -0.13071617012434
  48    2.1798659968308e-17
  49    1.8944913393361e-11
  50      -3.8441367409334
  51    -2.6184148677196e-17
  52      0.54968796059892
  53    1.2665656821739e-15
  54      3.9507007695e-19
  55      0.15659202401146
  56    1.1896710177135e-11
  57     -0.10050948675191
  58     -0.53641580874266
  59       6.9856480076695
  60      0.11627677404799
  61     0.074666353864003
  62    -3.4384587426466e-17
  63       3.3213114574382
  64       1.9404845196934
  65    3.6893863215382e-17
  66     -0.55512821853167
  67    6.3690073005871e-16
  68    -1.1020930308405e-15
  69     0.065764363965147
  70      0.14101991739448
  71      0.10050948675127
  72      0.53641580874978
  73      -6.9856480076485
  74     -0.11627677404154
  75     0.074666353863412
  76    -7.2312493607533e-17
  77      -3.3213114574322
  78       1.9404845197079
  79    -1.0608396582596e-16
  80      0.55512821852851
  81    -8.936584069107e-16
  82    -1.2958904850309e-15
  83    -0.065764363954566
  84      0.14101991739908
  85      -0.1242019916868
  86      0.88228235703765
  87      0.12609796373768
  88     -0.88277779340331
  89     -0.12609796373635
  90      0.88277779340216
  91      0.12420199168839
  92     -0.88228235703711
  93     -0.12609796373581
  94      0.88277779340441
  95      0.12609796373298
  96     -0.88277779340392
 Sym= A
 Ene=     3.391884461
 Spin= Alpha
 Occup=    0.00000
   1    -7.4829536773624e-14
   2    -5.7759049677747e-13
   3    6.0909868638263e-12
   4     -0.42193089835283
   5    -1.8241738185697e-14
   6    2.222995574047e-16
   7      -1.6883425241898
   8    -3.7263160246255e-12
   9    -4.1900675086541e-17
  10    -2.8897512501548e-13
  11    8.786256057474e-16
  12    -4.4651075281355e-16
  13    -2.0845277246236e-13
  14      0.71404974907107
  15    3.950186768941e-06
  16    -6.3902800443715e-06
  17    -0.00019256286492851
  18     -0.21092459018988
  19      0.36531607598657
  20    -6.865113884888e-17
  21     -0.84426647336105
  22       1.4622867112752
  23    -1.720227212347e-16
  24    5.0591462995791e-05
  25    7.0106111682257e-16
  26    -7.2847060443897e-16
  27      0.61838990142119
  28      -0.3572126192982
  29    -3.9501867483421e-06
  30    6.3902800851039e-06
  31    0.00019256286403058
  32      0.21092459018998
  33      0.36531607598664
  34    -2.3082508656433e-17
  35      0.84426647336146
  36       1.4622867112754
  37    1.3305862241611e-16
  38    -5.0591462884529e-05
  39    -1.5852379706725e-15
  40    -3.8918850705477e-16
  41     -0.61838990142129
  42      -0.3572126192983
  43    5.3287960560773e-14
  44    4.9154027587245e-13
  45    -5.2355282692637e-12
  46      0.42193089835289
  47    -3.7419329844666e-15
  48    -1.3341114372426e-16
  49       1.6883425241903
  50    -3.1826596066068e-12
  51    -2.4423636113912e-16
  52    1.7118493057237e-13
  53    -4.8848518087091e-16
  54    -3.2555073863508e-16
  55    2.8325726350473e-13
  56      0.71404974907124
  57    3.9501866295751e-06
  58    -6.3902811023103e-06
  59    -0.00019256285296468
  60      0.21092459018997
  61     -0.36531607598654
  62    -7.3484370003411e-18
  63      0.84426647336706
  64      -1.4622867112719
  65    1.4646441271062e-16
  66    5.0591462475393e-05
  67    -5.3781960508345e-17
  68    2.5395142698042e-16
  69      0.61838990142149
  70     -0.35721261929782
  71    -3.9501866271016e-06
  72    6.3902811889896e-06
  73    0.00019256285290812
  74     -0.21092459018997
  75     -0.36531607598659
  76    4.9716460712581e-17
  77     -0.84426647336721
  78      -1.4622867112717
  79    -1.037571295473e-16
  80    -5.0591462456891e-05
  81    1.243370437497e-16
  82    3.1172457301275e-16
  83     -0.61838990142145
  84     -0.35721261929783
  85    -2.0310901143126e-14
  86    9.4810985107148e-13
  87    0.00021283060305609
  88    -0.00012124094800693
  89    -0.00021283060301276
  90    0.0001212409479539
  91    3.9403684932794e-14
  92    -7.863381586882e-13
  93    0.00021283060293244
  94    -0.00012124094631529
  95    -0.00021283060299129
  96    0.00012124094629188
 Sym= A
 Ene=     3.792570238
 Spin= Alpha
 Occup=    0.00000
   1     0.063850739571197
   2      0.08446124270388
   3      -3.7346614337998
   4    1.6363935820163e-13
   5       0.1136129814282
   6    1.1075272432976e-16
   7    7.6245997508347e-13
   8       2.1172397299416
   9    -2.3124714004406e-18
  10      0.27377858325415
  11    -1.7988787583076e-17
  12    -1.2495299831876e-17
  13     -0.68300502265373
  14    -1.8912738923482e-13
  15    -0.063867768656217
  16    -0.084582378384162
  17       3.7369010243069
  18    -0.098329173649368
  19    -0.056711797645167
  20    -3.8644086608187e-18
  21      -1.8328058558713
  22      -1.0594575006057
  23    7.9187210523812e-18
  24     -0.27388015995525
  25    -7.3621922975416e-18
  26    -5.587856391988e-18
  27     -0.34135624244579
  28     -0.59150177561528
  29     0.063867768656187
  30     0.084582378384036
  31      -3.7369010243055
  32     0.098329173649236
  33    -0.056711797645213
  34    1.2240418713101e-18
  35       1.8328058558708
  36      -1.0594575006061
  37    -3.3912910357929e-18
  38       0.2738801599551
  39    -2.640894899726e-18
  40    -6.0726159406123e-18
  41      0.34135624244592
  42     -0.59150177561519
  43    -0.063850739571146
  44    -0.084461242703526
  45       3.7346614337975
  46    -1.5111914997177e-13
  47      0.11361298142808
  48    -1.5820053564557e-19
  49    -1.2016389782466e-12
  50        2.117239729941
  51    -1.3497859466565e-18
  52     -0.27377858325389
  53    -1.619142128648e-18
  54    -2.0728917218786e-18
  55      0.68300502265365
  56    -2.5574222244615e-13
  57     0.063867768656234
  58      0.08458237838428
  59      -3.7369010243078
  60    -0.098329173649319
  61    -0.056711797645196
  62    2.6144561625853e-18
  63      -1.8328058558724
  64      -1.0594575006053
  65    4.5225304334191e-18
  66      0.27388015995533
  67    1.3903469052977e-18
  68    -8.9621105264478e-19
  69      0.34135624244569
  70      0.59150177561539
  71    -0.063867768656259
  72    -0.084582378384454
  73       3.7369010243085
  74     0.098329173649381
  75    -0.056711797645092
  76    2.3736531849466e-18
  77       1.8328058558729
  78      -1.0594575006053
  79    -4.5800394015351e-18
  80     -0.27388015995545
  81    1.4090034142525e-18
  82    2.3969059374528e-18
  83     -0.34135624244564
  84      0.59150177561546
  85     -0.26388128111003
  86     -0.36044933938043
  87      0.26357623546477
  88      0.36000616826153
  89     -0.26357623546486
  90      -0.3600061682616
  91      0.26388128111008
  92      0.36044933938053
  93     -0.26357623546481
  94      -0.3600061682618
  95      0.26357623546481
  96      0.36000616826182
