[Molden Format]
made by pyscf v[2.12.1]
[Atoms] (AU)
C   1   6     0.00000000000000     1.34737472681489     2.35270902508350
C   2   6     0.00000000000000     2.64183712214196     0.00000000000000
C   3   6     0.00000000000000     1.34737472681489    -2.35270902508350
C   4   6     0.00000000000000    -1.34737472681489    -2.35270902508350
C   5   6     0.00000000000000    -2.64183712214196     0.00000000000000
C   6   6     0.00000000000000    -1.34737472681489     2.35270902508350
C   7   6     0.00000000000000    -1.35682335743771     4.68841051504592
C   8   6     0.00000000000000     0.00000000000000     6.90505925916074
C   9   6     0.00000000000000     2.63238849151913     6.83324966642726
C   10   6     0.00000000000000     1.35682335743771     4.68841051504592
H   11   1     0.00000000000000     4.68841051504592     0.00000000000000
H   12   1     0.00000000000000     2.36782683408002    -4.12338240380096
H   13   1     0.00000000000000    -2.36782683408002    -4.12338240380096
H   14   1     0.00000000000000    -4.68841051504592     0.00000000000000
H   15   1     0.00000000000000    -3.40339675034168     4.74888175103200
H   16   1     0.00000000000000    -0.98454731089840     8.69840935137298
H   17   1     0.00000000000000     3.65662005103339     8.60392304514473
H   18   1     0.00000000000000     3.40339675034168    -4.74888175103200
[GTO]
1 0
 s    6 1.00
             3047.5249  0.0018347001629433
             457.36951    0.01403730124668
             103.94869   0.068842606114048
             29.210155    0.23218442062076
              9.286663    0.46794134155879
              3.163927    0.36231203217765
 s    3 1.00
             7.8682724   -0.11933240861517
             1.8812885   -0.16085421161283
             0.5442493     1.1434564825515
 s    1 1.00
             0.1687144                   1
 p    3 1.00
             7.8682724   0.068999095584993
             1.8812885    0.31642397975315
             0.5442493    0.74430825237435
 p    1 1.00
             0.1687144                   1
 d    1 1.00
                   0.8                   1

2 0
 s    6 1.00
             3047.5249  0.0018347001629433
             457.36951    0.01403730124668
             103.94869   0.068842606114048
             29.210155    0.23218442062076
              9.286663    0.46794134155879
              3.163927    0.36231203217765
 s    3 1.00
             7.8682724   -0.11933240861517
             1.8812885   -0.16085421161283
             0.5442493     1.1434564825515
 s    1 1.00
             0.1687144                   1
 p    3 1.00
             7.8682724   0.068999095584993
             1.8812885    0.31642397975315
             0.5442493    0.74430825237435
 p    1 1.00
             0.1687144                   1
 d    1 1.00
                   0.8                   1

3 0
 s    6 1.00
             3047.5249  0.0018347001629433
             457.36951    0.01403730124668
             103.94869   0.068842606114048
             29.210155    0.23218442062076
              9.286663    0.46794134155879
              3.163927    0.36231203217765
 s    3 1.00
             7.8682724   -0.11933240861517
             1.8812885   -0.16085421161283
             0.5442493     1.1434564825515
 s    1 1.00
             0.1687144                   1
 p    3 1.00
             7.8682724   0.068999095584993
             1.8812885    0.31642397975315
             0.5442493    0.74430825237435
 p    1 1.00
             0.1687144                   1
 d    1 1.00
                   0.8                   1

4 0
 s    6 1.00
             3047.5249  0.0018347001629433
             457.36951    0.01403730124668
             103.94869   0.068842606114048
             29.210155    0.23218442062076
              9.286663    0.46794134155879
              3.163927    0.36231203217765
 s    3 1.00
             7.8682724   -0.11933240861517
             1.8812885   -0.16085421161283
             0.5442493     1.1434564825515
 s    1 1.00
             0.1687144                   1
 p    3 1.00
             7.8682724   0.068999095584993
             1.8812885    0.31642397975315
             0.5442493    0.74430825237435
 p    1 1.00
             0.1687144                   1
 d    1 1.00
                   0.8                   1

5 0
 s    6 1.00
             3047.5249  0.0018347001629433
             457.36951    0.01403730124668
             103.94869   0.068842606114048
             29.210155    0.23218442062076
              9.286663    0.46794134155879
              3.163927    0.36231203217765
 s    3 1.00
             7.8682724   -0.11933240861517
             1.8812885   -0.16085421161283
             0.5442493     1.1434564825515
 s    1 1.00
             0.1687144                   1
 p    3 1.00
             7.8682724   0.068999095584993
             1.8812885    0.31642397975315
             0.5442493    0.74430825237435
 p    1 1.00
             0.1687144                   1
 d    1 1.00
                   0.8                   1

6 0
 s    6 1.00
             3047.5249  0.0018347001629433
             457.36951    0.01403730124668
             103.94869   0.068842606114048
             29.210155    0.23218442062076
              9.286663    0.46794134155879
              3.163927    0.36231203217765
 s    3 1.00
             7.8682724   -0.11933240861517
             1.8812885   -0.16085421161283
             0.5442493     1.1434564825515
 s    1 1.00
             0.1687144                   1
 p    3 1.00
             7.8682724   0.068999095584993
             1.8812885    0.31642397975315
             0.5442493    0.74430825237435
 p    1 1.00
             0.1687144                   1
 d    1 1.00
                   0.8                   1

7 0
 s    6 1.00
             3047.5249  0.0018347001629433
             457.36951    0.01403730124668
             103.94869   0.068842606114048
             29.210155    0.23218442062076
              9.286663    0.46794134155879
              3.163927    0.36231203217765
 s    3 1.00
             7.8682724   -0.11933240861517
             1.8812885   -0.16085421161283
             0.5442493     1.1434564825515
 s    1 1.00
             0.1687144                   1
 p    3 1.00
             7.8682724   0.068999095584993
             1.8812885    0.31642397975315
             0.5442493    0.74430825237435
 p    1 1.00
             0.1687144                   1
 d    1 1.00
                   0.8                   1

8 0
 s    6 1.00
             3047.5249  0.0018347001629433
             457.36951    0.01403730124668
             103.94869   0.068842606114048
             29.210155    0.23218442062076
              9.286663    0.46794134155879
              3.163927    0.36231203217765
 s    3 1.00
             7.8682724   -0.11933240861517
             1.8812885   -0.16085421161283
             0.5442493     1.1434564825515
 s    1 1.00
             0.1687144                   1
 p    3 1.00
             7.8682724   0.068999095584993
             1.8812885    0.31642397975315
             0.5442493    0.74430825237435
 p    1 1.00
             0.1687144                   1
 d    1 1.00
                   0.8                   1

9 0
 s    6 1.00
             3047.5249  0.0018347001629433
             457.36951    0.01403730124668
             103.94869   0.068842606114048
             29.210155    0.23218442062076
              9.286663    0.46794134155879
              3.163927    0.36231203217765
 s    3 1.00
             7.8682724   -0.11933240861517
             1.8812885   -0.16085421161283
             0.5442493     1.1434564825515
 s    1 1.00
             0.1687144                   1
 p    3 1.00
             7.8682724   0.068999095584993
             1.8812885    0.31642397975315
             0.5442493    0.74430825237435
 p    1 1.00
             0.1687144                   1
 d    1 1.00
                   0.8                   1

10 0
 s    6 1.00
             3047.5249  0.0018347001629433
             457.36951    0.01403730124668
             103.94869   0.068842606114048
             29.210155    0.23218442062076
              9.286663    0.46794134155879
              3.163927    0.36231203217765
 s    3 1.00
             7.8682724   -0.11933240861517
             1.8812885   -0.16085421161283
             0.5442493     1.1434564825515
 s    1 1.00
             0.1687144                   1
 p    3 1.00
             7.8682724   0.068999095584993
             1.8812885    0.31642397975315
             0.5442493    0.74430825237435
 p    1 1.00
             0.1687144                   1
 d    1 1.00
                   0.8                   1

11 0
 s    3 1.00
             18.731137    0.03349459952309
             2.8253937    0.23472694665786
             0.6401217    0.81375731841339
 s    1 1.00
             0.1612778                   1

12 0
 s    3 1.00
             18.731137    0.03349459952309
             2.8253937    0.23472694665786
             0.6401217    0.81375731841339
 s    1 1.00
             0.1612778                   1

13 0
 s    3 1.00
             18.731137    0.03349459952309
             2.8253937    0.23472694665786
             0.6401217    0.81375731841339
 s    1 1.00
             0.1612778                   1

14 0
 s    3 1.00
             18.731137    0.03349459952309
             2.8253937    0.23472694665786
             0.6401217    0.81375731841339
 s    1 1.00
             0.1612778                   1

15 0
 s    3 1.00
             18.731137    0.03349459952309
             2.8253937    0.23472694665786
             0.6401217    0.81375731841339
 s    1 1.00
             0.1612778                   1

16 0
 s    3 1.00
             18.731137    0.03349459952309
             2.8253937    0.23472694665786
             0.6401217    0.81375731841339
 s    1 1.00
             0.1612778                   1

17 0
 s    3 1.00
             18.731137    0.03349459952309
             2.8253937    0.23472694665786
             0.6401217    0.81375731841339
 s    1 1.00
             0.1612778                   1

18 0
 s    3 1.00
             18.731137    0.03349459952309
             2.8253937    0.23472694665786
             0.6401217    0.81375731841339
 s    1 1.00
             0.1612778                   1

[5d]
[7f]
[9g]

[MO]
 Sym= A
 Ene=    -11.40494769
 Spin= Alpha
 Occup=    2.00000
   1    0.0082114371000389
   2    -0.0014772796112483
   3     0.011114421090253
   4    2.8946705663769e-16
   5    0.00023964451300724
   6    -0.00081091231123942
   7    -5.8462507453401e-17
   8    -0.0021513719857044
   9    0.0069504645277275
  10    -2.0959466856318e-05
  11    4.4000356563806e-17
  12    0.00022995575577166
  13    0.00014301242017456
  14    -2.387603511235e-18
  15    -5.7242997661008e-06
  16    4.970754042794e-05
  17    0.0019129227752947
  18    6.4150763601088e-18
  19    -2.2047426632247e-05
  20    3.0853425432983e-05
  21    2.2245097852538e-17
  22    -0.00049421109584567
  23    0.00040817827694629
  24    3.9788335302499e-05
  25    8.8852588460287e-18
  26    1.4215432315408e-05
  27    8.7688655326296e-06
  28    -7.7734050387941e-18
  29    -4.1657006960516e-06
  30    -4.3877553742289e-05
  31    -0.00014413509006403
  32    -1.9057927042198e-18
  33    -1.0371183682776e-05
  34    -1.0025104999799e-05
  35    -3.4634837397595e-18
  36    -3.6372413151786e-05
  37    8.3409778994404e-05
  38    2.4884161803387e-05
  39    9.7519885980709e-19
  40    -2.5172052178385e-05
  41    1.9377370874942e-06
  42    -1.5315109517475e-18
  43    -8.6238399902836e-06
  44    -2.3000351699257e-05
  45    6.6573558449455e-05
  46    1.0927691084097e-18
  47    -8.249366401418e-06
  48    -2.7103636288469e-06
  49    3.1407015355758e-18
  50    8.2936769596719e-05
  51    6.5631580159465e-05
  52    7.9871124847659e-06
  53    2.9122144670238e-19
  54    -1.2052791792971e-06
  55    -7.5059853383221e-06
  56    9.4326452022106e-19
  57    3.6872476743645e-06
  58    2.2297956873064e-06
  59    -0.00067644924570385
  60    -4.609999571673e-18
  61    1.7143490719755e-05
  62    2.8455373999176e-05
  63    6.7477827394824e-19
  64    -0.00015595230062735
  65    -0.00021174308023984
  66    1.7047981853896e-05
  67    -1.0792918153506e-18
  68    2.5633472154203e-05
  69    -1.2396172447258e-05
  70    6.6223406847438e-20
  71    0.00029303653026635
  72    8.3576155439376e-05
  73    -0.0050813510445477
  74    -1.0908338509607e-17
  75    7.9456874846844e-05
  76    -5.5748425014569e-05
  77    1.6016912023535e-17
  78    -0.0012773306916028
  79    -0.0025512621502892
  80    -0.00014135731742075
  81    -5.5667537333232e-18
  82    7.0846992605418e-06
  83    2.8380053685303e-05
  84    -3.0643634970812e-18
  85    0.0029505257412276
  86    -0.00057897553339862
  87    0.0071686979041426
  88    1.2377805233839e-17
  89    -0.00061142163379181
  90    -1.5502370980789e-05
  91    -4.0285640347815e-17
  92    0.0023032342880554
  93    -0.0023203075280485
  94    0.00041402811387555
  95    -4.7568011968634e-18
  96    0.00025818673244889
  97    0.0007473155608497
  98    1.3550744679033e-17
  99     0.015051242738909
 100    -0.00074935066780644
 101    0.0016720254241923
 102    -3.1033344354205e-19
 103    -0.00066192886705167
 104    0.00097033548693128
 105    -1.9771266074118e-17
 106    -0.00031540359044202
 107    -0.0012119129371984
 108    -0.00056767281810486
 109    -6.6951989518237e-18
 110    0.00094427047798772
 111    0.00035467794422172
 112    6.8712075774663e-18
 113     0.013465370642566
 114    -0.00094769017362798
 115    0.0028554967580953
 116    2.2675793316622e-17
 117    0.00064475772805046
 118    0.00075597877412227
 119    -5.4367061379038e-17
 120    -0.0013306063554344
 121     -0.00164857344307
 122    -0.00031793685783566
 123    -1.862037065957e-17
 124    -0.00055733090534339
 125    0.00022067733635317
 126    -1.0570973811548e-17
 127      0.99558085847367
 128     0.026983559018809
 129    -0.024198935953168
 130    -3.5720434876643e-16
 131    -0.0026466438460372
 132    0.0021050501438099
 133    2.5265250866248e-16
 134    0.0037359916746801
 135    0.0030834454334952
 136    0.0018648166435159
 137    -1.7211609631453e-17
 138    0.00014966706805667
 139    -0.00073402812855503
 140    -2.2908679533755e-17
 141    1.295017339673e-05
 142    3.7419760228875e-05
 143    2.1771472842379e-06
 144    0.0001108198626455
 145    5.0435104205983e-06
 146    3.8076952731176e-05
 147    -1.0433210882091e-06
 148    -3.5305569754582e-05
 149    0.00017512267100187
 150    0.00025633663056185
 151    0.00023443935487834
 152    0.0001114864665655
 153    0.00012848325374777
 154    0.0005286962165274
 155    -1.8912783561557e-07
 156    -1.7141419332512e-05
 Sym= A
 Ene=    -11.37021415
 Spin= Alpha
 Occup=    2.00000
   1    -0.00031860999306642
   2    0.00019472841290184
   3    8.6258890779538e-05
   4    3.2760149661063e-17
   5    4.8485356819736e-05
   6    0.00011333347375394
   7    -1.3626774291723e-16
   8    0.0013858089032956
   9    0.0013211905195346
  10    0.00015722837519985
  11    -1.880693592208e-17
  12    0.00022735735985993
  13    -1.7015657679243e-07
  14    -5.3521011686369e-17
  15    -6.9297106129238e-07
  16    -2.7177000964184e-05
  17    0.00075850077072861
  18    1.9329765604323e-16
  19    -4.8666987167209e-06
  20    2.4897944577225e-05
  21    1.0860176760721e-17
  22    -0.00073757129331015
  23    -0.00025825912633875
  24    2.9061544178197e-05
  25    -2.9047059590528e-17
  26    -1.3049395149499e-05
  27    1.8180030894239e-06
  28    1.5878544463735e-17
  29    9.470270359851e-06
  30    4.6994658498651e-05
  31    -0.0007872999926113
  32    1.7593924425228e-18
  33    -6.1285004619711e-06
  34    2.2222931692524e-06
  35    -4.8664864248245e-19
  36    0.00014956414217478
  37    -0.00056315417057429
  38    -4.837163167798e-06
  39    7.1566938569005e-19
  40    -9.9247696121008e-06
  41    1.1905466361347e-05
  42    3.4484633366646e-19
  43    -4.6616042257729e-06
  44    -3.553749796386e-05
  45    0.0010669668722079
  46    -2.0398947927233e-19
  47    -5.2305145929074e-06
  48    2.2949284500855e-05
  49    -6.7736174635329e-19
  50    6.8731977343128e-05
  51     0.000562015696627
  52    7.3469332195708e-06
  53    -1.2567082408196e-19
  54    -7.6063614042601e-06
  55    -2.3931600203499e-06
  56    -4.5742950398268e-20
  57    2.0506981503385e-06
  58    2.9975270882668e-05
  59    -0.002024262147916
  60    7.3846654100881e-19
  61    -9.6719292981526e-06
  62    -4.7784837233615e-05
  63    -8.7492298779603e-19
  64    -0.0011673685231798
  65    0.00012513456166148
  66    3.2777542870398e-05
  67    1.2677618310348e-19
  68    -2.0858734266266e-06
  69    2.8041574313074e-05
  70    -3.9931705636085e-22
  71    -5.8577129776348e-05
  72    0.00024863046870987
  73    -0.0026329845422054
  74    7.3441780021891e-19
  75    -5.989047656553e-05
  76    0.00015128759276491
  77    3.9161844001314e-18
  78    0.00026513006706849
  79    -0.0040679924280178
  80    6.1388126902207e-05
  81    1.3903346413671e-18
  82    -0.00012673306574646
  83    -2.2440808371293e-05
  84    1.7251220975586e-20
  85      0.00778107701217
  86    -0.00084604228596867
  87    0.0071121930411969
  88    -2.9708312778433e-18
  89    -0.00035234738353223
  90    -0.00053856497110938
  91    -1.0102118724475e-17
  92    -0.00014218511948526
  93    -0.001572639697385
  94    -0.00055303363176116
  95    3.1443338373326e-18
  96    -0.00054401294938837
  97    0.00015179643620604
  98    -7.3109015811482e-19
  99      0.99553887145589
 100     0.026208614178542
 101    -0.016035056710503
 102    -7.242007852834e-17
 103    0.00096236904390274
 104    -0.0029424900041532
 105    3.8405322017278e-17
 106    -0.0028303190866595
 107    0.0044057158629476
 108    0.00083190513119125
 109    -8.3993893882812e-18
 110    -0.0004428475605112
 111    -0.00082371109339065
 112    -1.2874537897371e-17
 113     0.020286723612109
 114    -0.00031224527290777
 115    0.0046238387613398
 116    -1.0409055900545e-20
 117    0.00033806208836194
 118    0.00010531743175817
 119    -6.2777885929359e-18
 120    -0.0017984360491878
 121    -0.00060428243658846
 122    0.00021972189631347
 123    -1.5882826037778e-19
 124    0.00015142936349213
 125    0.00039161203028084
 126    -3.9270671449745e-18
 127    -0.015585128367738
 128    -0.0018024623984107
 129    0.0034618607817554
 130    -4.4271462099776e-18
 131    0.00063576490340172
 132    -0.00087359477997225
 133    -8.1531648493847e-18
 134    -0.0030225209592036
 135    0.0021721416038772
 136    -0.00065124935991903
 137    4.191613591636e-18
 138    0.00081878420856272
 139    0.00022867463371329
 140    2.8685247081835e-18
 141    3.4732209158254e-05
 142    0.00023668662479605
 143    -1.4605994512804e-05
 144    -0.00022778896171149
 145    5.1103819665138e-06
 146    9.1083500775271e-05
 147    -4.1622790720833e-05
 148    -0.00029869512322663
 149    -0.0002252826633482
 150    -0.00030020526652117
 151    -0.00063343802448973
 152    0.00058558551986277
 153    -0.00013695063639957
 154    0.00015909080827015
 155    1.0055315027499e-06
 156     4.55193467674e-05
 Sym= A
 Ene=     -11.3406812
 Spin= Alpha
 Occup=    2.00000
   1    -0.0002385681447728
   2    0.00027243214518693
   3    -0.0054936639248905
   4    -8.49622583786e-17
   5    -5.1164452650877e-05
   6    8.3010309090752e-05
   7    2.9212996355987e-17
   8    -0.00039868671002511
   9    -0.0046890833624322
  10    6.3883960941706e-05
  11    1.6804331245247e-17
  12    -0.00015323563921667
  13    1.0129534472136e-06
  14    -3.7356211010366e-17
  15    -1.9313285029112e-05
  16    -8.4045429326027e-06
  17    -0.0014948398163596
  18    -1.8235181735695e-17
  19    3.3831311173993e-05
  20    -4.7291445768907e-05
  21    4.650851712905e-17
  22    0.00097075770814191
  23    3.413143192872e-05
  24    1.1182025613495e-05
  25    5.8027551283224e-17
  26    4.2314333129835e-05
  27    3.2583255621049e-05
  28    1.1157044929032e-17
  29    -1.5013122550683e-06
  30    -4.0697862173349e-06
  31    0.00079537132412482
  32    -1.6908815906488e-18
  33    -1.6122325819293e-06
  34    2.1699108960694e-05
  35    2.1476053949048e-18
  36    -9.1476590154854e-05
  37    0.0002586476946834
  38    -8.4247079816657e-06
  39    -1.2775317296798e-18
  40    3.0572676116392e-06
  41    -2.3790397476435e-06
  42    8.7656939848536e-19
  43    1.340289405284e-05
  44    4.1673462926724e-05
  45    -0.00059503684649277
  46    3.5429839016984e-19
  47    1.6691461671925e-05
  48    -1.5466810443395e-06
  49    -7.7907206879901e-19
  50    -0.00021940146467312
  51    -0.00034363972727219
  52    -3.6956467893883e-06
  53    -1.3887378274994e-19
  54    1.0500890680839e-05
  55    9.3087503181937e-06
  56    -2.6447459899217e-19
  57      2.6462283241e-06
  58    -4.8536240110005e-06
  59    0.0019595042027869
  60    3.1521809612811e-19
  61    2.5638666573572e-05
  62    4.6207342749356e-05
  63    2.0988358194337e-18
  64    0.00075527276456034
  65    0.00039475144010779
  66    4.259195605335e-06
  67    1.9469025875367e-19
  68    3.9416740370335e-06
  69    -5.4217561922214e-06
  70    1.4845033716962e-19
  71    -7.4643650598056e-05
  72    -8.4593356992966e-05
  73    0.0034770619693153
  74    2.2071936057629e-18
  75    1.5320837699898e-05
  76    -5.5203592396563e-05
  77    -1.8414499079292e-18
  78    0.00073365397499979
  79    0.0041017575617009
  80    1.0391777712616e-05
  81    5.8269629560017e-19
  82    -1.1673062464134e-05
  83    -2.4385076859295e-06
  84    1.7421479574312e-18
  85    -0.0008499155220413
  86    2.7118800592859e-05
  87    -0.004236101326962
  88    4.9399932336647e-19
  89    -0.0001027092795117
  90    -6.6757589061163e-05
  91    1.4799609883173e-18
  92    -0.00040007316277529
  93     0.002895084251708
  94    3.0305364332067e-05
  95      1.6081526887e-19
  96    -6.1369984502436e-05
  97    -1.6737887097239e-05
  98    3.1821948606787e-19
  99    -0.020804819398374
 100    -0.0014131911423432
 101    0.0062624241476563
 102    6.1502603130086e-18
 103    -0.0005954879247392
 104    6.5685093121934e-05
 105    -1.1742794191029e-18
 106    0.0034860481426001
 107    7.0481997214568e-05
 108    0.00032451999291954
 109    -2.8394127848055e-19
 110    5.1763766527172e-07
 111    0.0005329687354951
 112    3.5191790738374e-18
 113      0.99575701586098
 114      0.02553288977638
 115    -0.017025978540264
 116    -3.0307097589369e-17
 117    -0.0021329360735805
 118    -0.0005187486658896
 119    1.556151550049e-17
 120    0.0043367655552887
 121    0.0022744096688784
 122    0.00047315376352291
 123     5.74246342507e-18
 124    0.00092165517002406
 125    -0.0007861420027499
 126    -7.1814945768554e-18
 127    -0.013738373259909
 128    -0.0019008683150437
 129     0.011433011415099
 130    2.2259765973278e-18
 131    -0.00053520909842023
 132    -0.0007586147942313
 133    -8.0106249117684e-18
 134    0.0027873759399389
 135    -0.0019694519865365
 136    -0.00041275686565499
 137    -1.3037050054244e-18
 138    -0.00049788564949643
 139    0.00014024692625517
 140    2.9136197528938e-18
 141    -3.2926426136687e-05
 142    -0.00029062140988498
 143    -1.6623598249545e-06
 144    -2.9313347345565e-05
 145    -1.5380472688491e-05
 146    -9.5973804019252e-05
 147    6.6074681464452e-06
 148    0.0001441476679231
 149    2.4191511465618e-05
 150    -2.9865517374542e-05
 151    -0.00018038294934831
 152    -1.7258209536737e-05
 153    -0.00079206910102508
 154    0.0012519422959563
 155    3.8498721244801e-06
 156    2.2774517637444e-05
 Sym= A
 Ene=    -11.29473518
 Spin= Alpha
 Occup=    2.00000
   1    0.0010631689567991
   2    -8.8029944653079e-05
   3    -0.00076988867385601
   4    -4.3688018526921e-17
   5    -1.7252397782282e-05
   6    -0.00018141695564781
   7    -8.8285899573024e-18
   8    -4.3707041704506e-05
   9    0.0026218368333585
  10    -0.00012178784717086
  11    3.4826291027298e-17
  12    2.3923698826474e-05
  13    8.279453370131e-05
  14    -4.8447632589787e-17
  15    2.5612275482292e-05
  16    -2.7881141650988e-05
  17    0.0020660308421372
  18    -7.9401036586337e-18
  19    -5.4146088778676e-05
  20    8.3737951018842e-05
  21    -2.4898196176491e-17
  22    -0.00085057510954973
  23    0.00054196300362296
  24    4.0532929185258e-05
  25    5.8761447409819e-17
  26    -3.6002935589352e-05
  27    -2.3660102730037e-05
  28    -4.4633049003528e-17
  29    5.7895238732643e-06
  30    3.0575897378993e-05
  31    -0.00085615607610898
  32    5.0256527158752e-18
  33    -3.237115991081e-06
  34    1.3469654643071e-06
  35    -6.5800007325609e-18
  36    0.00041151915671225
  37    -0.00046004490925051
  38    8.2368869323134e-06
  39    2.2738760944721e-18
  40    -1.1924494864594e-05
  41    9.1613788701916e-06
  42    1.2118699092664e-18
  43    -2.1919549393819e-06
  44    -9.6344808094571e-05
  45    0.0012873274620071
  46    5.4955891515455e-19
  47    -3.863355950675e-06
  48    2.0747991220438e-05
  49    -8.762254787567e-20
  50    0.00041584951570202
  51    0.00070872256122157
  52    2.5524793701315e-05
  53    -1.2022669613896e-19
  54    1.1978855810368e-05
  55    -1.3813587764631e-05
  56    -1.8837223959768e-19
  57    0.00083875801913635
  58    1.5061008765378e-05
  59    -0.00058925201441711
  60    -1.8577215795301e-18
  61    -2.8680126931823e-05
  62    -0.00012841131914243
  63    -3.6422897791648e-18
  64    -0.0011778157089046
  65    0.00024129177713116
  66    -4.1129863108642e-05
  67    -8.8751335284995e-19
  68    -0.00010805938746653
  69    5.5020202225227e-05
  70    -1.0346758496722e-18
  71      0.10060261486878
  72    0.0010690887283344
  73    0.0055074905082167
  74    -2.260262838547e-17
  75    -9.7141653512133e-05
  76    -0.00069285229818625
  77    2.0317195375353e-17
  78    0.0020343236429744
  79    0.0012041475324832
  80    -3.2400869424008e-05
  81    -7.1761347272049e-18
  82    0.00022123202761426
  83    8.8833567552582e-05
  84    1.115405709391e-19
  85      0.99046197917722
  86     0.027248297950765
  87    -0.016645845532062
  88    3.2354546489854e-17
  89    0.0023726269667041
  90    0.00012448279414792
  91    -3.0578708189576e-17
  92    -0.0044738167906832
  93    0.00047646167570472
  94    0.00096784340912909
  95    -5.6555397404476e-18
  96    0.00062382321375788
  97    -0.00091398990450213
  98    -3.3821259657904e-18
  99    -0.0081122983823893
 100    -0.0014051838189425
 101    0.0043559846101179
 102    -1.805503545727e-19
 103    0.00053692789013452
 104    0.00088065894863406
 105    8.2545506338037e-18
 106    -0.00019773172022285
 107    -0.0010259748300952
 108    -0.00042233014474632
 109    2.3689578852662e-18
 110    -0.00080966367913431
 111    0.00033425107356336
 112    1.3930146916438e-18
 113    0.00068762826000935
 114    1.1838817392304e-05
 115    -0.0032916912995179
 116    2.6397977789317e-19
 117    0.00019853215908264
 118    8.0234106801618e-05
 119    -2.3442661947779e-18
 120    0.0014781269474998
 121    0.0013460664188202
 122    0.00012783259556005
 123    -1.1433129331834e-18
 124    -0.00019022887610727
 125    7.3367850229335e-07
 126    1.6140900257389e-19
 127    -0.0029548934609781
 128    -0.00093462673829053
 129    0.0045178737895469
 130    5.4624789861626e-18
 131    0.00074572578736027
 132    -3.9699491390162e-05
 133    2.8984994361663e-18
 134    -0.00082015048316246
 135    0.0026213093332188
 136    0.00053205322805253
 137    -4.6433593459509e-18
 138    -0.00013555872163535
 139    0.0007536415848715
 140    -3.0909574068949e-18
 141    -4.282272915092e-06
 142    0.00015529752778448
 143    -1.8026592094809e-05
 144    -0.00018252687224331
 145    1.7468836536637e-05
 146    0.00022287813186644
 147    -5.2808468394785e-05
 148    -0.00053011094201032
 149    -0.00057788563377568
 150    0.00096606216166426
 151    -0.00019179597990948
 152    -0.000109729676167
 153    -1.1848828281888e-05
 154    -0.00044161998551752
 155    -1.0375684256169e-05
 156    3.6937136212213e-05
 Sym= A
 Ene=      -11.281067
 Spin= Alpha
 Occup=    2.00000
   1     0.015458334135809
   2    -0.0004053307896061
   3      0.01264724756971
   4    1.2588294074078e-16
   5    0.00025679319932007
   6    -1.5070627419945e-05
   7    -1.0624222905222e-16
   8    -0.0038061708113065
   9    0.0041087419449401
  10    0.00025396646336363
  11    -5.0293269985208e-17
  12    0.0001722312784315
  13    0.00036256899328369
  14    -5.0613687539017e-17
  15    -6.3704638004462e-05
  16    -4.9456833610917e-05
  17    0.00037207197145294
  18    2.9596950131886e-17
  19    6.2223750492851e-05
  20    -2.6614635706918e-05
  21    1.4833967538753e-17
  22    0.00016465484621934
  23    0.00062902786015328
  24    1.5060518617472e-05
  25    4.450050152393e-18
  26    1.0609319859099e-05
  27    -3.763797126965e-05
  28    5.4673134516422e-18
  29    -7.7400581328547e-05
  30    -0.00016287739605163
  31    0.00065011821446637
  32    3.9474811577207e-18
  33    3.2919029718361e-05
  34    -7.3575331195293e-05
  35    -1.1442313055808e-17
  36    -0.00018135030319556
  37    0.00075330479445265
  38    2.1038105899792e-05
  39    -2.7238385855308e-18
  40    1.1566187019638e-05
  41    -2.3679865644309e-05
  42    1.7639545448383e-18
  43    0.00025380540742812
  44    -0.00011375863551198
  45    -0.00029900700280806
  46    -1.8612250383779e-18
  47    -6.8631091912677e-07
  48    -8.9653478991759e-05
  49    9.0498121259052e-18
  50    -0.00019001548482012
  51    -0.00019452924210127
  52    5.8237064732912e-06
  53    -2.5264183599216e-19
  54    9.0701901530847e-06
  55    -4.1379999276225e-05
  56    -3.0653768068335e-18
  57     0.014368099050127
  58    -0.00055175230888736
  59    0.0020585097474098
  60    1.6082156459976e-18
  61    -0.00030987441826898
  62    -0.00054721976097548
  63    -3.7564841972868e-17
  64    0.00049408877107395
  65    0.00090154447367163
  66    -0.00036703632319578
  67    -1.3939190519484e-18
  68    -0.00050247536709499
  69    0.00021236063228877
  70    4.2484896124924e-18
  71      0.99064137695738
  72     0.026460621555449
  73    -0.022808353116679
  74    -1.644616321253e-16
  75    0.00034392569988243
  76    0.0015661428148083
  77    1.2698356848676e-16
  78    -0.003286415742617
  79    -0.0045010334062864
  80    0.0013947863114361
  81    1.842004234982e-18
  82    0.00054766020682099
  83    -0.00047979101367669
  84    1.2691061220788e-17
  85     -0.10163721112326
  86    -0.0047516959432321
  87     0.014237890687153
  88    9.9570389431785e-18
  89    -0.00032606048938641
  90     0.001125707770221
  91    -4.1798811377612e-17
  92    0.0029242805780422
  93    -0.0043542451061107
  94    -0.00054774300623556
  95    -1.3340491509935e-17
  96    0.00015909418409282
  97    0.00016637962073566
  98    -3.0688077397786e-18
  99    0.00092181470208572
 100    9.710331046817e-05
 101    -0.0023935246514578
 102    1.6895915569294e-18
 103    -2.5006632915849e-06
 104    6.8790493309332e-05
 105    1.1912906337753e-17
 106    -0.00076370956752774
 107    0.0013156932320217
 108    1.3455192977695e-05
 109    -4.9592067054622e-18
 110    8.5438330231402e-05
 111    -7.6581921243775e-05
 112    -3.4190094944105e-18
 113    -1.4301103339683e-05
 114    2.7083572811892e-06
 115    -0.0020018640084945
 116    -1.689502771805e-19
 117    -5.568231612471e-05
 118    -2.5932891987672e-06
 119    -5.1141903971237e-18
 120    0.00039048375088971
 121    0.00092683806274128
 122    2.6884220861937e-05
 123    7.0816595435578e-19
 124    4.3790305811189e-05
 125    -1.2874333795922e-05
 126    4.9312729294627e-19
 127    -9.5614024804833e-05
 128    0.00019375142529537
 129    -0.0067805076732103
 130    -1.0784462438725e-18
 131    -0.00019815334389936
 132    1.9579089433044e-05
 133    8.4129646809256e-18
 134    0.0026352263040506
 135    0.0063212451285208
 136    -0.00016694764157357
 137    -1.3702523006174e-18
 138    -6.9267517536405e-05
 139    -9.7246770109177e-08
 140    4.1113490223719e-18
 141    -1.9137787742246e-05
 142    5.7232349291006e-05
 143    1.2314459478998e-05
 144    0.00057082644450087
 145    -1.8282156353143e-05
 146    -1.0410879770249e-05
 147    -0.00014612880076992
 148    -4.1524313147359e-05
 149    5.3576673725828e-05
 150    0.00065526909289681
 151    -2.2933204109661e-07
 152    -0.00025354771489362
 153    -3.0289480648213e-05
 154    -0.00021600278431321
 155    -1.2174747048902e-05
 156    -0.0001699509107449
 Sym= A
 Ene=    -11.25988069
 Spin= Alpha
 Occup=    2.00000
   1    -0.00075715616186159
   2    -0.00013320633087125
   3    -0.0025339453750615
   4    2.4735631469212e-17
   5    3.4461216444771e-05
   6    0.00010089699630265
   7    -1.1313458803914e-16
   8    0.00040427841815169
   9    -0.0062644458334447
  10    -3.8069704845004e-05
  11    7.0228698705846e-17
  12    -2.3717012063104e-05
  13    -2.5765736034606e-05
  14    -5.2826705589225e-17
  15    0.00010368351121561
  16    0.00011452094365059
  17    -0.0051455594367028
  18    -9.126587980186e-17
  19    7.5547375485571e-05
  20    2.5865351791089e-05
  21    1.2023412234619e-16
  22     0.002588292393131
  23    -0.00058766509867984
  24    -2.3099093486469e-05
  25    8.6821936019317e-17
  26    2.5219965048149e-06
  27    -8.5978379473175e-08
  28    4.1757950744879e-17
  29    0.0040475961903406
  30    -0.000782712007039
  31    0.0071475169923132
  32    1.2466639426827e-17
  33    0.00028234208438982
  34    7.6324775703547e-06
  35    -7.2131595210752e-17
  36    -0.0029430622544407
  37    0.0022974319971964
  38    0.00017729697377634
  39    3.1408245610983e-17
  40    -5.0286375859217e-05
  41    0.00031204013926777
  42    -3.9270701952563e-17
  43      0.99521057794246
  44     0.024578408767239
  45    -0.017558825394721
  46    -4.74916174863e-16
  47    -0.0001294389893941
  48    0.00023410169890524
  49    2.8499093822987e-16
  50    -0.0018517452415868
  51    -0.0030692407541817
  52    0.00021115029234551
  53    -1.5859283124159e-17
  54    -8.5784085271207e-05
  55    -0.00047602553707217
  56    1.5592429141122e-16
  57     0.044725177980338
  58    0.00023397849551451
  59    0.0073339586358136
  60    1.0551422503255e-17
  61    -0.00013488572201993
  62    0.00034132343646265
  63    -6.6998505228981e-17
  64    0.0029999613936367
  65    -0.0010472161515618
  66    -0.00030161870904989
  67    -1.1551650583633e-17
  68    0.00029099848992686
  69    9.4775658212429e-05
  70    3.8343919576514e-19
  71    -0.00089523574941229
  72    -3.047340212633e-05
  73    -0.00091576680611074
  74    -1.0426613729654e-18
  75    2.1307111215277e-05
  76    5.8127179780433e-05
  77    2.4085651727272e-17
  78    0.00021573945415042
  79    0.0032069694222072
  80    -3.644925647344e-05
  81    -4.7193528502001e-19
  82    -6.7588147846893e-06
  83    -1.0397969321837e-05
  84    -3.2202982656232e-18
  85    4.2587629454115e-05
  86    1.8884834538446e-05
  87    -0.0030167636560153
  88    -1.4592064259937e-18
  89    -4.0690987679636e-06
  90    2.2799006855377e-05
  91    -5.9787183252621e-18
  92    -0.00049944868027568
  93    0.00047575406974896
  94    1.3520937834918e-05
  95    1.0427620431242e-18
  96    -2.2034519350528e-05
  97    2.597308193816e-06
  98    3.8265549116491e-19
  99    -4.7852804357643e-06
 100    -2.7408491176562e-05
 101    0.0015378089174658
 102    -3.3931124656967e-19
 103    5.5411586426792e-06
 104    -1.2161191779475e-05
 105    -1.9356929533724e-18
 106    0.00026211789180559
 107    -0.00080473127455293
 108    -9.5330307518859e-07
 109    5.2030677921123e-19
 110    6.9668997957448e-06
 111    -2.8476529261815e-06
 112    -2.7889659800401e-19
 113    -5.6250041213116e-07
 114    5.2595775812423e-05
 115    0.0011210183034239
 116    -1.2158394609976e-18
 117    -8.0834116490291e-06
 118    -2.1265171403831e-05
 119    -5.3271371792953e-18
 120    -0.00029078181197605
 121    -0.00032107861075837
 122    -1.4633399732262e-05
 123    6.1485576224865e-19
 124    7.4520248601876e-06
 125    1.0448883275437e-05
 126    7.0090716208637e-20
 127    -1.1575894439225e-07
 128    -4.4929708870218e-05
 129    0.0048631304678003
 130    4.2241134741886e-19
 131    1.3128795928929e-05
 132    -1.2642811611148e-05
 133    1.8167569413863e-17
 134    -0.0003883464596799
 135    -0.0044778650575389
 136    3.9175230026236e-05
 137    -3.3636403222652e-18
 138    -8.2059964348846e-06
 139    -2.7013908036825e-06
 140    1.1675480027501e-19
 141    -5.4386814569776e-05
 142    -0.00049524403479739
 143    -5.6053904421567e-05
 144    0.00088694571364964
 145    -0.00045598221671814
 146    0.0016330495789913
 147    -0.00010643629882144
 148    0.00061466884961462
 149    -3.0256520050341e-05
 150    7.4784188174097e-06
 151    1.6136370430743e-05
 152    0.00016984160138809
 153    -2.2554971918797e-06
 154    6.2449689006163e-05
 155    3.9781346586859e-05
 156    -0.00011827822757436
 Sym= A
 Ene=    -11.24933112
 Spin= Alpha
 Occup=    2.00000
   1      0.99537643384746
   2     0.026555539588314
   3    -0.012861286525519
   4    -3.0542054103885e-17
   5     -0.00059172095254
   6    0.0016589371843845
   7    1.2581152405419e-17
   8    0.00081415674104676
   9    0.0017763946501355
  10     0.001428850742793
  11    -7.7670773259815e-18
  12    -0.00071502234140374
  13    -0.00042646355945432
  14    -5.2904752446032e-18
  15     0.022637294713757
  16    -0.00034475091257173
  17    0.0039670375610982
  18    3.2239484832027e-17
  19    0.0002935213360497
  20    -0.00051440265194606
  21    1.1916323020453e-18
  22    -0.0010498017578012
  23    0.0017982708574012
  24    -0.00036624694526866
  25    1.2382588798529e-17
  26    0.00050980778575333
  27    0.00019984239568181
  28    -1.2366649371582e-18
  29    7.9171027668051e-05
  30    -0.00012742372067023
  31    -0.00047944522621286
  32    -1.873265283768e-18
  33    -1.5021222932744e-05
  34    -0.00010572353618945
  35    -1.5472848220988e-18
  36    0.00049129138248884
  37    1.0180558791634e-05
  38    1.2582698970651e-05
  39    -3.4444437099129e-19
  40    -1.7322758730059e-05
  41    -3.6622478048478e-05
  42    1.3815355149496e-18
  43    0.0014091671215365
  44    -0.00013672939501429
  45    0.0008274419476632
  46    -1.0326719505647e-18
  47    -4.3091513529713e-05
  48    -5.0824326625381e-05
  49    4.6709114008077e-19
  50    0.00046833189004085
  51    0.00044413289525815
  52    1.9832963614797e-05
  53    1.953683827829e-19
  54    -1.1461479684352e-05
  55    -3.2653755327979e-05
  56    2.9165314718845e-20
  57    -0.015126150727029
  58    -0.00042784883668736
  59    -0.00072388845908027
  60    2.3369399901739e-18
  61    -6.9948403800318e-05
  62    -2.6836662651429e-05
  63    -1.7570641050202e-18
  64    -0.00041068676591611
  65    -9.0926761621076e-05
  66    3.7755087259057e-05
  67    5.9430369607174e-19
  68    8.8121668454693e-06
  69    -4.0339496885933e-05
  70    -6.8787261715177e-20
  71    -0.015551124224622
  72    -0.0011784216355421
  73    0.0057526468883161
  74    -7.2458687788853e-18
  75    -0.00032797999258071
  76    -0.00011034864793105
  77    -8.7134165250669e-18
  78    0.0018121810857203
  79    -0.00016047429848588
  80    0.00019115014611097
  81    3.5549075866778e-19
  82    -0.00022732588279556
  83    0.00042116267395856
  84    -2.8759801544686e-18
  85    0.00050942883403652
  86    3.1056244440575e-06
  87    0.00087345025904844
  88    5.0631401182211e-18
  89    8.1742132265702e-05
  90    1.6600541353811e-05
  91    6.460037216444e-18
  92    0.0013282920804843
  93    0.00082387708826354
  94    -7.4435364302142e-05
  95    -1.154685486855e-18
  96    2.6306460149764e-06
  97    7.7455217878942e-07
  98     1.88956062906e-18
  99    0.00020874784610435
 100    -2.3021067701849e-05
 101    -0.0025702627562327
 102    -3.1147928044718e-18
 103    6.0698147193965e-06
 104    0.00016816693229435
 105    -1.715342941428e-18
 106    -0.00035538119477471
 107    0.0017636704937604
 108    -2.8779252713988e-05
 109    6.6827586730839e-20
 110    4.1811132103568e-05
 111    -4.8879622820413e-05
 112    3.487065388336e-20
 113    0.00017518771544119
 114    0.00014197581388958
 115    -0.004804777699125
 116    -1.1296892621662e-18
 117    -6.1648948518613e-05
 118    7.7088584250527e-05
 119    1.9586718728741e-18
 120    0.0015424799617315
 121    0.0025405154868257
 122    8.3541173953182e-05
 123    -2.3553217611883e-18
 124    8.6172876936065e-05
 125    -4.115837314612e-05
 126    -4.3434547744633e-19
 127    -0.0092744701884241
 128    -0.0021097913772319
 129    0.0063920527009787
 130    3.303897941065e-17
 131     3.30805242218e-05
 132    0.0010502536074642
 133    -1.1183550565338e-17
 134    0.0023691417953665
 135    0.0049030030107419
 136    -0.00052650034528723
 137    -1.3955100379668e-17
 138    -0.00032996372062915
 139    0.00017093981964533
 140    -9.9606043194999e-18
 141    -0.00016805239752777
 142    9.6385745028824e-05
 143    -1.4173516648925e-05
 144    0.0001403458605196
 145    1.7295155674145e-05
 146    0.00021690332054798
 147    8.3475431273479e-06
 148    -2.6844677175049e-05
 149    9.0068916574988e-05
 150    0.00057297583062656
 151    -4.1408146326411e-05
 152    -0.00050991595249717
 153    -0.00011035126140155
 154    -0.000759627909878
 155    -2.6229934475006e-05
 156    -4.5241490071361e-05
 Sym= A
 Ene=    -11.24836279
 Spin= Alpha
 Occup=    2.00000
   1      0.01496553608326
   2    0.00045014362256357
   3    -0.0051351989825978
   4    1.5036422306946e-17
   5    7.1788437786077e-05
   6    0.00013636927851013
   7    8.8228335755972e-17
   8    0.0012735669069673
   9    -0.002674556694615
  10    1.4567684220363e-05
  11    2.8854518346889e-17
  12    -2.1558720387895e-05
  13    -2.1682474607266e-05
  14    1.2325835927303e-17
  15    -0.00016780298122388
  16    -0.00017397326612682
  17    -0.0001629913324582
  18    4.6605715429913e-17
  19    8.7679978814871e-05
  20    -5.7622999081123e-05
  21    -4.9148850131932e-17
  22    -0.00040242847261989
  23    -0.00040254398783617
  24    2.5467478033328e-05
  25    -6.0385579117338e-17
  26    2.247569315875e-05
  27    -8.9263982407487e-06
  28    5.7888013522675e-18
  29    -0.00024261226826119
  30    6.0851665759382e-05
  31    -0.0024574550991275
  32     2.94195078161e-18
  33    9.8704307959728e-05
  34    -4.4356463329311e-05
  35    1.3765431060389e-18
  36    0.0006703019714698
  37    -0.00043611359166168
  38    2.2431894143884e-05
  39    -5.8037609714789e-18
  40    1.8347096520106e-06
  41    -2.2293673032024e-05
  42    2.2485491911555e-18
  43     -0.04505855631768
  44    -0.0019653857496673
  45    0.0066836130661707
  46    -1.841867376695e-17
  47    9.467966440812e-05
  48    -0.00029961577946879
  49    -6.5884736397255e-17
  50    0.00050984948848434
  51    0.0029208965651493
  52    -0.00023403840240355
  53    -8.006426678609e-18
  54    0.00027559512192174
  55    0.00015510309984716
  56    -9.8348816617415e-18
  57      0.99493510379838
  58     0.024883602501243
  59    -0.015741266794329
  60    -2.7234383148215e-16
  61    0.00056694186065577
  62    0.00059572485524492
  63    1.7061301668353e-16
  64    -0.0029982926704954
  65    -7.9002425468801e-05
  66    0.00040685199475421
  67    -7.6898386042003e-17
  68    5.5906561642174e-05
  69    -0.00028799955800729
  70    1.9331389467256e-17
  71    -0.014855069068348
  72    -0.0013813962508305
  73    0.0087290679761268
  74    5.7341173597094e-18
  75    0.00017204868788148
  76    0.00027624644915968
  77    -6.9443028145637e-17
  78    0.00079423696244922
  79    -0.0003320112973865
  80    -0.0004143938082372
  81    -1.5358909636881e-17
  82    -0.00045419796889746
  83    0.00019079006659333
  84    -4.9864950249325e-20
  85    0.0007005483751143
  86    0.00030584177960826
  87    -0.0038030473015072
  88    9.1308307405116e-18
  89    0.00010134809083881
  90    -3.649358813801e-05
  91    1.9559462353618e-17
  92    -0.0011328915877963
  93    0.00095838215736143
  94    6.844094555463e-05
  95    -8.8155417697076e-18
  96    -0.00013179430172058
  97    -3.8037036517396e-06
  98    9.6401554265907e-19
  99    -1.8688893833385e-05
 100    -0.00010710563072303
 101    0.0017338686996743
 102    -1.1345828117923e-18
 103    -2.5184519374736e-05
 104    -2.42373905881e-05
 105    -5.9094234459285e-18
 106    0.00057773125830461
 107    -0.0010077562154155
 108    4.1478110447383e-05
 109    -7.9792578947453e-19
 110    1.4477791569193e-05
 111    -7.3156391754551e-06
 112    1.3154127909809e-19
 113     1.16051462916e-05
 114    0.00011446680717285
 115    -0.00045166556760102
 116    6.2839356547013e-20
 117    2.2366484146803e-05
 118    -2.1787354345776e-05
 119    -1.7928716343144e-18
 120    0.00037748122152521
 121    0.00042913831944739
 122    -1.1860548371104e-05
 123    -5.9804903052794e-19
 124    -1.7917411468355e-05
 125    1.550362150304e-05
 126    -5.5462001781218e-19
 127    -0.00015950177529729
 128    -8.6782611738076e-05
 129    0.0041200013004901
 130    1.4817554365167e-18
 131    -2.3206720501099e-05
 132    -2.256051833788e-05
 133    1.4288076491088e-18
 134    -0.00022736341693016
 135    -0.0023760381538014
 136    8.4965244729682e-06
 137    -4.2265532653163e-18
 138    9.8765307757116e-06
 139    4.926757104557e-06
 140    -1.8290004198152e-18
 141    3.5199862783193e-05
 142    0.00015076157315781
 143    -1.24764613218e-05
 144    0.00059815053318039
 145    -2.372242806018e-05
 146    0.00042885535500977
 147    -0.00037584989650434
 148    0.0016442561300016
 149    -3.5994286256325e-05
 150    -0.00015823526963125
 151    3.4050221217703e-05
 152    0.00028223274009786
 153    -2.6171511360974e-05
 154    -0.00020528681138141
 155    -3.979738228992e-05
 156    -0.0003441264548648
 Sym= A
 Ene=    -11.22857408
 Spin= Alpha
 Occup=    2.00000
   1    -0.022906527498076
   2    -0.0017053857528639
   3     0.013464958618723
   4    -8.2917111900241e-17
   5    -0.00012821625732921
   6    0.00027639503272211
   7    1.2512975060662e-17
   8    -0.0018747898024183
   9    0.0024313855651448
  10    -0.00040648496494155
  11    -7.5696969116174e-18
  12    0.00046914437034174
  13    0.00016099804240957
  14    4.8591530767119e-17
  15      0.99591090895395
  16     0.024787527769368
  17    -0.015307205134066
  18    2.7295451303348e-16
  19    -0.000477515943065
  20    0.00076087411614103
  21    -1.9411897537562e-16
  22    0.0027787329421178
  23    0.00038186589320806
  24    0.00036906263254126
  25    4.3071637347747e-17
  26    -9.3196543052889e-05
  27    -0.00034152733276435
  28    8.7832035236886e-17
  29    0.0059528737348187
  30    -0.0006844144349545
  31    0.0054152023460181
  32    3.1118199257687e-17
  33    -0.00011608706740685
  34    -0.00032893601524815
  35    5.2695986793626e-17
  36    -0.0002852294807888
  37    0.0040360922726296
  38    -0.00017327593066356
  39    -1.7465408566621e-17
  40    -0.00025784726724026
  41    0.00013100846071615
  42    2.0762020704228e-17
  43    -0.00014202314602702
  44    -2.4905936845174e-05
  45    -0.0021128436778448
  46    1.1914978445382e-17
  47    -0.0001079303072989
  48    -2.8033494578214e-05
  49    -1.1512243065401e-17
  50    -0.00034954060201045
  51    -0.0013205868675308
  52    2.0639031866996e-05
  53    8.6834085207562e-19
  54    3.4003505528627e-06
  55    -1.9813218171671e-05
  56    1.0524437475667e-18
  57    0.0004791774873215
  58    -0.00020540689657394
  59    0.00074376227316584
  60    -5.2884183155548e-18
  61    -8.0067928079607e-05
  62    -3.5556933107085e-05
  63    7.578849118392e-18
  64    0.00094089711127063
  65    -0.00071060130606762
  66    2.8410441501229e-05
  67    -1.0719949713448e-18
  68    -1.8549723936048e-05
  69    -3.2908517230955e-05
  70    1.2417810960041e-19
  71    0.00042185579285891
  72    3.4322541309273e-05
  73     -0.00471027935699
  74    -2.8441749771564e-18
  75    -0.0001028355980585
  76    0.00012738612473064
  77    -2.6551944912897e-17
  78    -0.0018081500325333
  79    -0.0016848601479754
  80    2.8373641744571e-05
  81    -5.7458889876974e-19
  82    1.3150762558609e-05
  83    -2.160436390739e-05
  84    -2.2655605702784e-18
  85    -7.3629818673487e-05
  86    -6.7476974780692e-05
  87    0.0043364237273153
  88    4.4032280339308e-19
  89    6.6849025537456e-05
  90    -7.6731894763253e-05
  91    7.0422293857021e-18
  92    0.0013596405908784
  93    -0.0012645644403683
  94    -1.9715068567432e-05
  95    -9.5024319548833e-19
  96    -7.9250444743002e-06
  97    -1.7622446527294e-05
  98    9.6715788069118e-19
  99    -2.5271883209057e-05
 100    -6.8126112986843e-05
 101    -0.00066169704455436
 102    1.2273133590339e-18
 103    1.5409643345033e-05
 104    8.4726542867744e-06
 105    1.3009313060567e-18
 106    -0.00023575010079465
 107    0.00017227481112907
 108    4.9796731911029e-05
 109    2.4751061822519e-19
 110    -9.2514708551445e-06
 111    -4.7040091101737e-06
 112    5.7435282376316e-20
 113    2.3787173858577e-05
 114    -3.6232279882015e-05
 115    -0.003073365586463
 116    -1.7533149821679e-19
 117    4.8306975979872e-05
 118    7.4999123426111e-05
 119    8.1806226843977e-18
 120    0.00084339050740978
 121    0.0015436861707699
 122    -4.1219647667085e-05
 123    7.1936271070795e-20
 124    -5.8103523447918e-05
 125    4.635939465308e-06
 126    2.3379132912701e-19
 127    0.00026225289191742
 128    0.00033380704025301
 129    -0.0052214827470553
 130    -1.6244966589169e-17
 131    -0.00013631054504611
 132    -9.3829778555704e-05
 133    -2.9936625116463e-17
 134    0.0026996938440478
 135    0.0061257091884424
 136    9.4381939155332e-05
 137    1.1372373406404e-17
 138    0.00017189404637806
 139    -2.1356076850697e-06
 140    3.7146293231638e-19
 141    -0.00039349848677943
 142    0.0017358010370316
 143    -3.4619739827929e-05
 144    0.0021342020157408
 145    -3.5412868623233e-05
 146    -0.00026448758524238
 147    4.9409070227207e-05
 148    0.00029777648454254
 149    -2.618461849113e-05
 150    0.00023857922068983
 151    -1.1763532292031e-05
 152    3.3402695649429e-05
 153    -2.7322364617494e-05
 154    -0.00042710601727985
 155    -5.1807295741092e-05
 156    -0.00069297226511469
 Sym= A
 Ene=    -11.14297858
 Spin= Alpha
 Occup=    2.00000
   1    8.6292521702504e-05
   2    3.6328198947023e-05
   3    -0.0069812762873911
   4    -3.8472656112403e-17
   5    -2.5365278240612e-06
   6    0.00012134974443583
   7    -3.6040646457958e-18
   8    0.00014659190671504
   9    -0.001235966265684
  10    -7.8345711439643e-05
  11    1.0761462468853e-17
  12    3.8827165858269e-06
  13    -3.458428570777e-05
  14    8.3123090217822e-19
  15    -0.0062746280030818
  16    -0.0010546194460976
  17     0.006614462992196
  18    -3.2268220126319e-16
  19    0.00023004603112729
  20    0.00035228583720804
  21    1.7763805899327e-16
  22    -0.0027275269587165
  23    -0.00061752308340086
  24    -0.00041837775068501
  25    4.3877010145854e-17
  26    -0.00046978162293308
  27    0.00018004033889533
  28    6.3626432446616e-17
  29      0.99610764605259
  30       0.0254494511114
  31    -0.017205138617655
  32    9.7079760413824e-16
  33    -0.0012314838941099
  34    0.0018498024196686
  35    -5.95696625348e-16
  36    0.0033318034026188
  37    -0.0045458092157367
  38    0.00036677386830055
  39    1.536217318368e-16
  40    1.7778801657211e-05
  41    -0.00062022429627416
  42    -1.1378788728945e-16
  43    -0.0043584401972921
  44    -0.00099530016069102
  45     0.007798833010631
  46    8.8908480674965e-17
  47    -0.0004025817948068
  48    -1.6669296050485e-05
  49    1.6009466981231e-16
  50    0.0025537180854335
  51    0.0023546941974891
  52    0.0003145024359814
  53    3.9031826618134e-17
  54    -2.6652213210196e-06
  55    0.00058482713036492
  56    6.7032144252285e-18
  57    7.7633253822792e-05
  58    -4.3164662906529e-05
  59    -0.0037924538279559
  60    -3.9341849241465e-17
  61    -0.0001243340317055
  62    7.3662306570379e-05
  63    -5.4761133374112e-17
  64    -0.0016909375198381
  65    0.0001762279993366
  66    -1.5830884453527e-05
  67    6.8103987196981e-18
  68    1.7098725072364e-05
  69    -4.2407872881288e-05
  70    -8.5808722923985e-18
  71    6.3934383005766e-05
  72    -0.00014339176592688
  73    -0.00055075609558571
  74    -3.2054423821142e-17
  75    -5.170413806319e-05
  76    0.00013309741758026
  77    4.800296422254e-17
  78    0.00054199702636462
  79    -0.0035971985036106
  80    -5.4146692502317e-05
  81    1.0248941965899e-17
  82    4.691287355878e-05
  83    -2.4203033710836e-05
  84    3.4662785063032e-18
  85    -1.1438627318278e-05
  86    5.1877474386813e-07
  87     0.001643496360198
  88    9.2677686927386e-18
  89    2.8441314264771e-06
  90    -3.3365688994385e-05
  91    -1.8232487047193e-17
  92    -0.0010954886416697
  93    -0.0022477656128812
  94    4.0920212508068e-05
  95    2.2312001972186e-18
  96    1.5053741524953e-05
  97    7.2151647695346e-07
  98    1.4862782230632e-18
  99    -5.174765919843e-06
 100    -3.0816808634936e-05
 101     0.002539675319868
 102    -6.3272629120682e-18
 103    2.0570661454056e-05
 104    -2.4153491622185e-05
 105    -2.4434668283786e-18
 106    -8.6548813175508e-05
 107    -0.0012296464191081
 108    -4.1762238800821e-06
 109    6.4984129583885e-19
 110    -1.0699924435608e-05
 111    -3.772166669828e-06
 112    -1.2504129759559e-18
 113    6.9103708281999e-06
 114    4.4959150925466e-05
 115    0.0018000014464339
 116    -6.3479476428359e-18
 117    -1.2984464586599e-05
 118    -3.7814447230821e-05
 119    -1.6497607734492e-17
 120    -0.00053801112161806
 121    -0.00054974140019052
 122    -1.7540169773791e-05
 123    1.6601557609069e-18
 124    9.3408973214936e-06
 125    1.1889177605839e-05
 126    1.7959356268989e-18
 127    -2.4421891340606e-05
 128    -0.00010214871871068
 129    0.0021419642319516
 130    1.8207884246448e-17
 131    -6.4288274288569e-06
 132    3.0336905553484e-05
 133    4.6179144198768e-17
 134    -0.00052772827241459
 135    -0.0045408960591574
 136    6.0717262353222e-05
 137    -4.0836310657607e-18
 138    1.4957484040998e-05
 139    -2.6036324327904e-06
 140    -1.7461510992885e-18
 141    -7.262240765767e-05
 142    0.00046079660967005
 143    -0.00058041710214519
 144    0.0013923120477494
 145    -5.450671888826e-05
 146    0.00056787919317826
 147    -2.4377691165879e-05
 148    -0.00019307134162958
 149    -5.357641544553e-05
 150    -0.00021643900434747
 151    -3.469034739746e-06
 152    0.00022625557632906
 153    -2.4140419550985e-06
 154    0.00014272930878517
 155    7.3841553145715e-05
 156    -0.00090143247902118
 Sym= A
 Ene=    -1.466392509
 Spin= Alpha
 Occup=    2.00000
   1    -0.059211300848247
   2      0.10957763462371
   3    0.0015545697844027
   4    -6.2806714393294e-16
   5    -0.039519642348427
   6     0.066032778451292
   7    -2.7774723296571e-16
   8    -0.003808758787541
   9    -0.035927518543858
  10    0.0051831312301258
  11    -5.8217176751042e-17
  12    -0.0051851046845856
  13    -0.0048032798762756
  14    2.3240107388753e-18
  15    -0.0055364059740198
  16     0.012207334764097
  17    -0.010439620491413
  18    -1.6050181587544e-17
  19    -0.0048856666163059
  20    0.0071911049087307
  21    6.7325340485332e-17
  22    0.0083179445829133
  23    -0.0026721314778614
  24     0.001037126125111
  25    4.5031867702369e-17
  26    -0.00080368481870745
  27    -0.00029157627853992
  28    -6.203974527362e-18
  29    -0.0012809326372057
  30    0.0033880332503843
  31    0.0030840153089585
  32    9.812402110822e-17
  33    -0.00037333132767366
  34    0.0023423279118397
  35    5.0063272046102e-17
  36    0.00097989850827494
  37    -0.0013476990021543
  38    6.7613292606829e-05
  39    8.3023411168486e-18
  40    5.651799462887e-05
  41    6.5974775808781e-06
  42    -1.4115112310872e-17
  43    -0.0014709847861908
  44    0.0037370053527245
  45    0.00034206792507278
  46    2.5544566783355e-17
  47    0.00026873892544574
  48    0.0023243259780303
  49    -3.8950963190121e-17
  50    0.00054103485913547
  51    -0.0010903558321126
  52    6.6742672266277e-05
  53    -2.8190512904661e-17
  54    -8.6608478803099e-05
  55    -2.4484114541916e-05
  56    2.7707609061313e-17
  57    -0.0058307522268836
  58     0.013134159130519
  59    -0.010426322842947
  60    5.4620573961791e-17
  61     0.004949153959275
  62    0.0071816979520983
  63    9.3053704539547e-17
  64    -0.0042028184028011
  65    -0.0069655849419553
  66    0.0006886555251568
  67    -1.2752514179085e-17
  68    0.00069231878933082
  69    -0.00025160562814901
  70    -1.6372814322618e-17
  71    -0.058283070209888
  72      0.11001522161238
  73     0.030346166395932
  74    -3.5456269422497e-16
  75     0.040969596532733
  76     0.064765567048246
  77    -1.5478638356196e-16
  78    -0.0097774618366936
  79    -0.016492032469981
  80    0.0066441706638242
  81    -1.958835243247e-16
  82     0.005736457044032
  83    -0.0048580502166675
  84    -2.454693672404e-16
  85     -0.10793061262106
  86      0.20031237669884
  87      0.09399697003801
  88    -6.7884675794216e-16
  89       0.1124860597547
  90    -0.004216079244545
  91    -1.6605545557661e-16
  92    -0.00029039432760406
  93    -0.0078351242840921
  94    0.0010626025504463
  95    3.7282571565163e-18
  96    0.0055576795883798
  97    -0.016601503634539
  98    -2.2741966149736e-16
  99     -0.10817276719265
 100      0.20908938203882
 101      0.09881407428943
 102    -5.4959664302576e-16
 103     0.056945925719215
 104     -0.12143203511015
 105    -1.7768346337338e-16
 106    -0.0017238541266516
 107    -0.0046551621029825
 108     0.015042482258405
 109    3.7834651110889e-16
 110    -0.0065602592742738
 111    -0.0084484681190283
 112    -1.9312841436255e-16
 113    -0.069591823102281
 114      0.13205101212042
 115     0.075587300794182
 116    -3.6726211511687e-16
 117    -0.087003119055581
 118    -0.049686332261085
 119    3.2292487798644e-17
 120    -0.0093745834364155
 121    -0.0028079403119061
 122    0.00010448708360288
 123    1.0846897829499e-16
 124    0.0085647704540895
 125    -0.010214586478405
 126    1.0492296895435e-16
 127     -0.14234666902787
 128      0.27264434978927
 129      0.14744974420815
 130    -9.8155448781749e-17
 131    -0.095777826341458
 132     0.053805993080486
 133    -6.5136477663694e-16
 134    -0.015541789609379
 135    -0.044222010596632
 136     0.012248539524089
 137    -5.4360068990593e-16
 138    -0.0034625685605712
 139    -0.013984729018617
 140    3.1081393970129e-16
 141    0.0013369092089529
 142    -0.0032350471237413
 143    0.00015405657931406
 144    -0.0030601924602026
 145    0.00029877411680591
 146    -0.00092667596989837
 147    0.0016878780404932
 148    -0.0010165627281782
 149     0.022137136690531
 150    -0.0091464278231856
 151     0.020104086027288
 152    -0.0083444338508136
 153      0.01324051267304
 154    -0.0047752673800524
 155    0.00011542535702025
 156    0.00090443205473693
 Sym= A
 Ene=    -1.262315621
 Spin= Alpha
 Occup=    2.00000
   1     0.095935240502194
   2     -0.17095839558011
   3     -0.23107536117178
   4    8.0259305732671e-16
   5     0.078004114786088
   6    -0.054377800945372
   7    4.3527760258722e-16
   8     0.017963283052095
   9    -0.054789909498697
  10    -0.0057766591085605
  11    4.2505467732123e-16
  12    0.0071056735841518
  13     0.010557707443907
  14    -1.4912175550823e-16
  15     0.021545728299353
  16    -0.043829745739187
  17    -0.018769283505535
  18    -2.2860137279799e-16
  19     0.017870329357003
  20    -0.016606155605702
  21    -5.9119826936724e-16
  22    -0.0017275573788088
  23    0.00070157701960438
  24    -0.0019949012166457
  25    -1.5905407784083e-16
  26    0.0019133490603597
  27    0.0017921852058668
  28    -3.5382399495919e-17
  29      0.01055963605631
  30    -0.019723259010789
  31    -0.010531463878052
  32    -6.9253557696329e-16
  33    0.0036427630788767
  34    -0.0099988266874408
  35    -1.7463502108544e-16
  36    0.0013549506293109
  37    -0.004116840042675
  38    -0.0010860068509891
  39    -8.3101967115633e-17
  40    -0.00013374434828652
  41    0.0010135235064447
  42    3.0583163770773e-17
  43      0.01313136777671
  44    -0.025698870247348
  45    -0.013304993074248
  46    -5.397322097386e-17
  47    -0.0013857164986574
  48    -0.012998408832898
  49    1.4882715470317e-16
  50    -0.0018281474119672
  51    -0.0010634240012985
  52    -0.0012982203243038
  53    1.590625142778e-16
  54    0.00061113923127435
  55    0.0010318821978271
  56    -1.621641181194e-16
  57     0.029738939930335
  58    -0.059191910357421
  59    -0.011836918275365
  60    -2.4268784511004e-16
  61    -0.020378213725039
  62    -0.023254104394201
  63    -9.9352504453014e-17
  64    0.0037583813987928
  65     0.007711489217269
  66    -0.0032481156393853
  67    4.4212106732842e-17
  68    -0.0026922554537575
  69     0.002231102518683
  70    8.9873398809851e-17
  71      0.11474587518503
  72     -0.21340430294366
  73     -0.11332289482427
  74    1.8319078508606e-16
  75     -0.06069209221795
  76     -0.07454819058749
  77    1.0061880312435e-16
  78     0.014124829986626
  79     0.013759167749133
  80    -0.0085317620476403
  81    3.0874684955445e-16
  82    -0.0055931510990952
  83     0.010510856123412
  84    3.3044666535217e-16
  85     0.064679061722413
  86      -0.1163154312953
  87     -0.13421273222707
  88    2.7472191503454e-16
  89    -0.00023527727273297
  90      0.15126004068206
  91    2.4822834351039e-16
  92    -0.030287176231573
  93    -0.0020209764534275
  94    -0.0069874996898344
  95    -1.8372847852582e-16
  96       0.0126091698335
  97    0.0041874163165537
  98    1.1889779127705e-16
  99    -0.086503360611227
 100      0.16660574347243
 101      0.17514510226617
 102    -1.7957501677267e-16
 103      0.11077375389191
 104    -0.028134246973539
 105    -1.8632172692306e-16
 106     0.012541929099344
 107    -0.036958493234821
 108    -0.0011777492883427
 109    1.7375208714375e-16
 110    -0.010750445134497
 111    -0.011416128165467
 112    -1.6072310958195e-16
 113    -0.096752243285619
 114      0.18395865392336
 115      0.17558198200875
 116    3.4164200985017e-17
 117      -0.1056385874346
 118    -0.041792423370707
 119    1.1711829234343e-17
 120    -0.026746506889048
 121    -0.021025890718572
 122    0.00098709582400492
 123    9.2357142309304e-17
 124     0.010207469591607
 125    -0.012836471301257
 126    3.5786100685548e-17
 127    -0.011925051001405
 128     0.022999034923309
 129     0.042927161782638
 130    -1.6046431277027e-15
 131     0.061772028049207
 132      0.24678597825893
 133    -3.4377742680326e-16
 134    -0.017759174909366
 135      -0.1193444037367
 136    0.0089399278743929
 137    -8.941126512459e-16
 138    -0.010729864262648
 139    0.0035290968022116
 140    -6.8414705425503e-19
 141    -0.006316519681673
 142    0.0017933877745326
 143    -0.0027023603527631
 144    -0.0017946907820074
 145    -0.003743838109352
 146    0.00033162104236474
 147    -0.010245435667223
 148    0.0012026386833907
 149     -0.03072668043659
 150    -0.0036951702205448
 151     0.027266183491784
 152    0.0043284377406625
 153     0.030461875350023
 154    0.0020920348281414
 155    -0.00059662425349024
 156    0.00062329019942178
 Sym= A
 Ene=    -1.097950967
 Spin= Alpha
 Occup=    2.00000
   1    -0.056347966894291
   2      0.11163520120011
   3    -0.010705202153517
   4    -3.0287722242237e-17
   5     0.028508866111426
   6    -0.063012825847188
   7    -8.1122435002815e-16
   8     0.013027725611391
   9    -0.067765700329661
  10      0.00356226608251
  11    -2.1080954644704e-16
  12    0.0007140291386703
  13    -0.0022832747770827
  14    8.0668099516262e-17
  15    -0.085377703824195
  16      0.16470853575977
  17     0.090776819926649
  18    -7.4736042198762e-16
  19    -0.048429534393917
  20    -0.0026727293876781
  21    9.4182210581051e-16
  22    0.0036110837741651
  23    0.00054205986423662
  24    0.0065677946555915
  25    -1.3736664654837e-17
  26    0.0012150549311066
  27    -0.007098953046357
  28    3.8836502306482e-16
  29    -0.088514969068669
  30      0.16753077420217
  31      0.11812154329403
  32    3.4952024892637e-15
  33    -0.035576090072875
  34     0.042654278014447
  35    1.8710520308475e-15
  36    -0.0094786740047804
  37     0.014108167958242
  38     0.003970800382468
  39    1.0674606851843e-15
  40    0.00035406134056742
  41    -0.0096624022526399
  42    -3.0626478688722e-16
  43     -0.10324952829449
  44      0.20339437169306
  45       0.1370023253498
  46    1.1029836181144e-15
  47     0.025851016817116
  48     0.049751924372435
  49    -3.2770125427957e-16
  50    -0.001519459466682
  51    0.0044048263960786
  52    0.0052197501538813
  53    -5.4737142851083e-16
  54    -0.0010101060508741
  55     -0.01016271238787
  56    1.1075323892793e-15
  57    -0.087821219113473
  58      0.16805523583031
  59      0.12979081771912
  60    -2.3267261928172e-16
  61     0.049530102123797
  62    -0.031220411103749
  63    -8.4541769856956e-16
  64    0.0053675775392255
  65    0.0039141278267118
  66    0.0057450765926471
  67    2.3790807405973e-16
  68    -0.0029578549488502
  69    -0.0071188768549514
  70    -6.5470570681415e-16
  71     -0.01217355391137
  72     0.026762375416316
  73     0.026301217537625
  74    -5.1081949397287e-17
  75    0.0068634175160644
  76     -0.13289555604293
  77    -4.4638698308909e-16
  78     0.015230548007266
  79    -0.0081301480091047
  80    -0.004748791723388
  81    3.480246187891e-16
  82    0.0017667801000142
  83    -0.0044780472359251
  84    3.3198718886502e-17
  85     0.079261134204716
  86     -0.15052835448368
  87     -0.15552051918426
  88    4.6314009988903e-16
  89    -0.023980246813443
  90    0.0032262247320361
  91    6.771853431523e-16
  92     -0.02250095262345
  93    -0.010794354650185
  94    -0.0020145716798539
  95    2.336909290661e-17
  96    -0.0027580059248647
  97     0.007955856845338
  98    1.9900831976533e-16
  99     0.010396510542438
 100    -0.020762214944758
 101     0.013400144668324
 102    -2.4519364594692e-16
 103     0.092878035255569
 104     0.051873831734807
 105    -2.6115795661549e-16
 106    0.0087712567041505
 107    -0.0092470628694449
 108    -0.011152624954764
 109    -6.8528208766421e-17
 110    -0.0063732239099868
 111    -0.0046178022804025
 112    -7.4673421255843e-17
 113     -0.05853107441706
 114      0.11436542772316
 115      0.13283576149435
 116    -2.2538636832917e-16
 117    -0.029444676865004
 118    -0.025548428410149
 119    -1.0807758834624e-16
 120    -0.016391910862187
 121    -0.012835268209267
 122    0.0046765934619675
 123    5.9398160024348e-17
 124    0.0055423113187296
 125    -0.003793326666278
 126    7.0425788958784e-17
 127    -0.020358144165045
 128     0.037354997687076
 129     0.086163212929948
 130    -1.4794218249073e-15
 131      0.10662775489937
 132     0.026163447790791
 133    -2.3780037273064e-16
 134    -0.010419635544157
 135    -0.081970028135262
 136      0.01245825735009
 137    1.560598909024e-17
 138    0.0046978830468412
 139    0.0083191157057331
 140    -3.2763903770946e-16
 141     0.034655532342076
 142    0.00052821343308954
 143     0.036673846347185
 144    0.00065223025722571
 145     0.045334744034925
 146    0.0036806992654563
 147     0.036660352933453
 148    0.0030026937432357
 149    -0.042439256855992
 150    -0.0091689774507708
 151    -0.0073333822253985
 152    2.0620010225027e-05
 153     0.029157938595132
 154    0.0066444795830968
 155     0.011014209060418
 156    0.0042801809604647
 Sym= A
 Ene=    -1.068731059
 Spin= Alpha
 Occup=    2.00000
   1     -0.11090788718589
   2      0.20659809898418
   3      0.19617036412542
   4    -8.873370108756e-16
   5     0.034371436811554
   6       0.1020229774988
   7    -4.5732084884777e-16
   8     0.018617199847864
   9     0.010190826820073
  10     0.015588834640705
  11    -7.8457927999269e-16
  12    -0.0029895627354883
  13    7.5597676208478e-05
  14    8.2526037467067e-17
  15    -0.029515957942334
  16     0.059581151863267
  17     0.019850369780252
  18    1.8475769958319e-15
  19    -0.00049080954842584
  20     0.053140424561336
  21    1.3705812731374e-15
  22    0.0084538120908969
  23    -0.0016630337423544
  24    0.0041784809231157
  25    4.4490773710787e-16
  26    -0.0044721869742069
  27    -0.0015678785688701
  28    -5.8420141623492e-17
  29     0.024851703051887
  30     -0.04803361310761
  31    -0.024117633816832
  32    -6.5114740363413e-17
  33     0.038063575103426
  34    0.0060913155933034
  35    -7.0573999690459e-16
  36    -0.0012092936794462
  37    0.0029558564394989
  38    0.0023439428768527
  39    -4.5415374047526e-16
  40    0.0020704537490114
  41     0.004878695848413
  42    6.5326885395338e-16
  43     0.069868112958623
  44     -0.13711059825767
  45     -0.10545841268423
  46    1.4099011566436e-15
  47     0.010128110844643
  48    -0.038720401344661
  49    6.6572634439495e-16
  50    -0.0029178207255987
  51    -0.0075218917082538
  52    -0.0055528092760124
  53    5.9979975450942e-16
  54    0.0025220077954324
  55    0.0054103934870205
  56    -7.0233658041902e-16
  57     0.090322305201887
  58     -0.17542070775842
  59     -0.10067053540035
  60    -1.3775803704008e-16
  61    -0.023462251142419
  62    -0.0023601578874578
  63    5.3104030165615e-16
  64    0.0065596656891192
  65    0.0096352335983858
  66    -0.0072851684637655
  67    -5.798676150457e-17
  68    0.0016885407021992
  69     0.006173747190552
  70    3.5794855940095e-16
  71     0.057275631174822
  72      -0.1131414885106
  73    -0.058499779370079
  74    -1.476032631462e-16
  75      0.11799321584079
  76    -0.0045557965434617
  77    -2.5883994522853e-16
  78     0.042375129310747
  79     0.042411845048163
  80    -0.015778530594301
  81    -4.9371296582192e-17
  82    -0.00070433613812931
  83    -0.0050582944859916
  84    -1.8587214448168e-16
  85     0.088993165211057
  86     -0.17226220226877
  87      -0.1725718547608
  88    1.1585439587342e-15
  89     0.058816672393522
  90    -0.021402706793304
  91    8.0929393785192e-16
  92     0.014469115521574
  93    0.0055604763579305
  94    -0.005877564475702
  95    -8.2357829552327e-18
  96    -0.013166855620702
  97     0.004700577638031
  98    3.7732212228324e-16
  99     0.056058850957344
 100     -0.11085076413213
 101     -0.13973680051219
 102    -4.2849729702031e-16
 103     0.067945658829599
 104     0.029071931324787
 105    -1.7112764133531e-16
 106    -0.0030062993785112
 107     0.026417761447616
 108    -0.0084221590979917
 109    -1.1971192397136e-16
 110    -0.0036103801441693
 111    0.0013759773854772
 112    -6.043535065955e-17
 113    -0.026847713715464
 114     0.053299738614073
 115    0.00084325031984301
 116    -5.8617837483848e-16
 117     0.015125877474513
 118    -0.047230130479789
 119    -2.367615559194e-16
 120     0.017683387618181
 121     0.017799876622389
 122    0.0070237172789069
 123    1.4548365903843e-17
 124    0.0031900549895816
 125    0.0023921634754584
 126    1.1921269037509e-16
 127    -0.086601645157093
 128      0.17141021724437
 129      0.17095578226599
 130    1.5927242886817e-16
 131     0.085016505400485
 132      -0.1541565494432
 133    -4.0303692188894e-16
 134     0.010613497946304
 135     0.072350648351471
 136     0.016027619915879
 137    5.0262357638797e-16
 138     0.010679030714527
 139    0.0057805459517084
 140    -5.6616574408124e-16
 141     0.018054068730167
 142    0.00067114749469354
 143    -0.010973696315996
 144    0.0027891140620518
 145    -0.034976778446899
 146    -0.0059990766090997
 147    -0.049125113019827
 148    -0.0077417463142065
 149    -0.082852849615738
 150    -0.013215991076651
 151    -0.042537137143743
 152    -0.016095854341275
 153    0.0088973962210132
 154    -0.0063143700315521
 155    -0.0029459908909444
 156    -0.0021728860784303
 Sym= A
 Ene=   -0.9924518321
 Spin= Alpha
 Occup=    2.00000
   1    -0.008914286406495
   2      0.02126284665189
   3    -0.036437137278829
   4    1.1259011674303e-15
   5     0.059256507760098
   6    -0.053662805784445
   7    -6.7487946613249e-16
   8      0.04530808569422
   9    -0.044680286886199
  10    0.0081221720164191
  11    1.2099171589208e-16
  12    -0.0074989991338933
  13    0.0039988604591539
  14    6.5608709476658e-17
  15    -0.092308425251714
  16      0.17891066021664
  17      0.12531708451721
  18    5.6981181461622e-16
  19     -0.02356180115729
  20     -0.03809511642984
  21    1.815662669291e-15
  22    -0.0015927306764824
  23    -0.016218908301381
  24    0.0048210244653767
  25    -6.847995419986e-16
  26    0.0049293972448282
  27    -0.0071323050282001
  28    2.7040492135915e-16
  29    -0.094216884971445
  30      0.18032307431647
  31      0.14320643794774
  32    2.3065906509866e-15
  33     0.011023320341115
  34     0.034060252359646
  35    2.2367670469198e-15
  36    -0.010054138712511
  37    0.0062356412259744
  38    0.0068673528854132
  39    7.7249003670634e-16
  40    0.0028840632357043
  41    -0.0067796430977949
  42    8.868247982248e-16
  43    -0.024300814544353
  44     0.049434139632347
  45     0.027540150847169
  46    3.9337319383389e-15
  47     0.078987299256517
  48    -0.036420101497369
  49    1.6607004705962e-16
  50    0.0048804915196143
  51    -0.010369595487591
  52    -0.0053455208952719
  53    7.5920442322949e-16
  54    0.0048929128019608
  55    -0.0063152628268629
  56    -8.3296351099084e-17
  57     0.075235047516149
  58     -0.14815417372326
  59    -0.094804852212384
  60    -1.1342878756643e-15
  61    -0.003242567627377
  62    -0.064264660702894
  63    1.8061258111165e-17
  64     0.012126707321085
  65    0.00071835150576222
  66    -0.0052635380214283
  67    2.3503140693952e-16
  68    -0.0058717271210229
  69    0.0053626227174036
  70    -8.1873062902902e-17
  71     0.086464962638829
  72     -0.16664560863698
  73     -0.11995864370106
  74    -8.2411832553146e-16
  75     0.048724946578232
  76     0.030960361691801
  77    -6.3852244557257e-16
  78     0.043816044249024
  79     0.027203985293567
  80    -0.0075182710500783
  81    1.9194289741127e-16
  82    -0.0053328678882115
  83    0.0039166655082721
  84    2.7629015654672e-17
  85     -0.03838584969111
  86     0.077433247100489
  87     0.034440694562204
  88    -6.3197149014767e-16
  89     0.083582993583242
  90      0.16619495543822
  91    -2.6650800476536e-17
  92    -0.0077400611302108
  93     0.023024496499939
  94    -0.0038134403217555
  95    -1.5269444395448e-16
  96    0.0085110696143941
  97    -0.0066441445950886
  98    -1.1424470296428e-16
  99    -0.046790686341389
 100     0.094940879859497
 101      0.10108749301636
 102    3.3351939370401e-16
 103      -0.1479486863508
 104    -0.090434553540166
 105    -1.7099565833979e-16
 106     -0.02687729709428
 107     -0.01540875620357
 108     0.019282301235015
 109    2.5550655534233e-16
 110    0.0059103821717088
 111    0.0055314099411195
 112    8.5487508760366e-17
 113     0.086949137126672
 114     -0.17257817441345
 115     -0.14087133216729
 116    5.155055970947e-16
 117     0.012067285120798
 118    0.0099328915932606
 119    1.6205660588643e-16
 120    -0.0041266154548505
 121     -0.02331380134081
 122    -0.0079315462691774
 123    -4.3217456253587e-17
 124    -0.0077454082704217
 125    0.0038295132843424
 126    -9.7458053070395e-17
 127     0.014410175067432
 128     -0.02491851524995
 129    0.0065305111799837
 130    7.7896135197408e-16
 131     -0.12831336274232
 132    -0.022965468769411
 133    8.6606785997449e-16
 134    -0.045945112294936
 135    -0.033905701389254
 136    -0.012324075965527
 137    -9.2513983396664e-17
 138    -0.017699737977867
 139    -0.008162397594219
 140    3.2808213514024e-16
 141     0.052384913267474
 142      0.01028330296498
 143     0.057582226365647
 144    0.0010595118769671
 145     0.013699340713851
 146    0.00091135016084245
 147    -0.050413071838765
 148    -0.0090553353211256
 149    -0.00015920283626048
 150    -0.0020536508167775
 151     0.034377006386281
 152    0.0089421257038926
 153    -0.064406105059104
 154    -0.0093893073741938
 155     0.021246090686913
 156    0.0097104995057807
 Sym= A
 Ene=   -0.9400715666
 Spin= Alpha
 Occup=    2.00000
   1    -0.009667447020779
   2     0.021530704996778
   3     0.019366769015417
   4    4.170949886894e-16
   5      0.02332634617797
   6     -0.17488656781718
   7    7.0810487401363e-16
   8    -0.032136666182329
   9    -0.016291937875192
  10    -0.0062017366149913
  11    -4.9565302893929e-16
  12    -0.0045054788730382
  13    -0.0058640024786065
  14    4.5299405503713e-16
  15     -0.10002804359897
  16      0.19585252409968
  17      0.17665982118644
  18    1.9662366606076e-15
  19    -0.015921548532029
  20     0.012762218940002
  21    1.5398480560951e-15
  22    0.0081212596908755
  23     0.028377635269992
  24    0.0046523556413667
  25    -1.1138747535795e-18
  26    -0.0020882255195716
  27    -0.0084032602856798
  28    2.2924528327526e-16
  29    -0.018429634708157
  30     0.034447419363339
  31     0.038067681217968
  32    2.5832375522882e-15
  33     0.084861889210563
  34     0.054705354435246
  35    1.4153623787358e-15
  36     0.018157909338792
  37      0.01760882591266
  38    0.0096261295400123
  39    -4.5985635118205e-16
  40    0.0053168231601687
  41    0.0041518196431668
  42    1.7608658975014e-15
  43     0.093653687809845
  44     -0.18786498214995
  45      -0.1615915273332
  46    3.0914349987592e-15
  47       0.0472903619988
  48    -0.017571397250273
  49    1.5460374443325e-16
  50     0.022275975977198
  51    0.00020476426114278
  52    -0.0082543153136369
  53    7.6603663038528e-16
  54    0.0015999244547013
  55    0.0057527896778764
  56    -1.0544390981222e-15
  57     0.050356453507258
  58    -0.096834891369199
  59     -0.10957262359212
  60    -1.2991210299012e-15
  61    -0.0051081557666293
  62      0.11280683234256
  63    1.2242083095323e-16
  64    -8.2183131419466e-05
  65    0.0015490287980924
  66    -0.00096416528605764
  67    -7.3391718168835e-16
  68    0.0084228430341219
  69    0.0039698073917094
  70    4.3904103150365e-16
  71    -0.061964172925136
  72      0.11873290106367
  73     0.084125603121513
  74    -3.4495436266076e-16
  75    -0.040950718399943
  76     0.064535816522865
  77    -1.2154782069158e-15
  78    -0.044518872483869
  79    -0.014100347528654
  80    0.0058772007103121
  81    -8.2645820848093e-17
  82    -0.0096432161027308
  83    -0.0013230151378914
  84    1.2265407518673e-16
  85    -0.034831364498161
  86     0.063960404689781
  87     0.092445689727088
  88    -1.52560323994e-15
  89     -0.16086987373647
  90     -0.10255046997908
  91    -3.6452713601489e-17
  92    -0.036361372160996
  93    -0.0090341546381682
  94    0.0098776005984073
  95    1.3039048810796e-16
  96    -0.0013190602791867
  97    0.0031351188239051
  98    -3.113968507059e-16
  99    -0.021134465471019
 100     0.041187753285913
 101      0.07337286943678
 102    -2.3631280465634e-16
 103     0.037860966156865
 104      0.12773232872806
 105    -6.8628071621784e-17
 106     0.017950122696019
 107     0.017169620497803
 108    -0.011260603788294
 109    -1.0669028806808e-16
 110    -0.00060449608580891
 111    -0.0078698240438229
 112    2.952712826374e-17
 113    -0.061177202657507
 114      0.12366791740956
 115      0.13912320216564
 116    2.2328061219619e-16
 117    -0.0051885040560792
 118     0.080971005212837
 119    6.5528059088532e-16
 120    -0.0034925434583618
 121     0.025084393808044
 122    0.0033963303149315
 123    2.7324142507677e-17
 124    0.0027366092277287
 125    -0.0058571219050832
 126    -1.1882856432094e-17
 127     0.068763882120473
 128     -0.14413348351142
 129     -0.13779755700929
 130    -3.5936243928581e-15
 131     0.074537867765561
 132     0.083069123352786
 133    -1.8806321530903e-15
 134      0.02634056869287
 135    -0.033337590363074
 136    -0.0021551685516678
 137    7.655967859623e-17
 138    0.0037028836808306
 139    0.0068314617441475
 140    9.8944821002077e-17
 141     0.062615148696629
 142     0.010879341117217
 143     0.012511845985768
 144    0.0063358657638953
 145    -0.071563789839726
 146    -0.016278806606913
 147    -0.033768880408339
 148    -0.0080997238239651
 149      0.08577225670616
 150     0.020797798920992
 151     0.053691080918905
 152     0.021656775482172
 153     0.079489501071305
 154     0.023870012899751
 155    0.0064536827246115
 156    0.00032824133631652
 Sym= A
 Ene=   -0.8857442102
 Spin= Alpha
 Occup=    2.00000
   1     0.058404621109347
   2      -0.1185822442781
   3    -0.062055574818932
   4    6.7442211047176e-16
   5    -0.038497915257893
   6     0.089301725577379
   7    -1.7611198109441e-15
   8    -0.043874939879789
   9     0.067397174330423
  10    -0.0036923016488639
  11    6.7773492998434e-16
  12    0.00038801693803662
  13    0.0016516672511937
  14    -9.6376576070975e-17
  15     0.037025846919282
  16    -0.074384733891501
  17    -0.026360809915703
  18    1.5087334611999e-15
  19    0.0027566982270713
  20      -0.1155524231593
  21    2.879501527624e-15
  22    -0.013989589626129
  23    -0.010136419997257
  24    -0.0017056110202813
  25    -1.3226089499173e-15
  26    0.0094504650330919
  27    0.0034814155037783
  28    -7.2456887222834e-17
  29    -0.093088179471444
  30      0.18355263193821
  31      0.15646590234404
  32    -2.3946040730441e-15
  33     -0.03969682352864
  34    -0.058207859805856
  35    -2.203448698799e-16
  36    0.0010251057394183
  37     -0.02087564574499
  38    -0.0006481471145711
  39    9.298143757918e-16
  40    -0.0020661577020398
  41    -0.0096002521178358
  42    3.8543927606334e-16
  43    -0.055711522370438
  44      0.11431626340274
  45     0.090847590442816
  46    1.4353063286434e-15
  47      0.10012637179615
  48    -0.086223726419243
  49    -1.3910594722266e-15
  50     0.024083120559553
  51    -0.034555049500819
  52    -0.0046805039247672
  53    8.5325589242727e-16
  54     0.006586465969386
  55    -0.0091342978786024
  56    -5.8315728071473e-16
  57     0.078415375410643
  58     -0.15267207714508
  59     -0.15517281943026
  60    -1.07619777962e-15
  61    -0.0012505838460229
  62    -0.049198018045114
  63    6.8525371569386e-16
  64     0.015355508927955
  65    -0.034790886593194
  66    -0.0011495048831661
  67    3.4365591206319e-16
  68    -0.0062797260360415
  69    0.0075519291229826
  70    2.0276004013383e-17
  71    -0.0084647783096495
  72     0.010535076790185
  73    -0.032509937553569
  74    -8.7786602629597e-16
  75    -0.0084256570586741
  76      0.22608266470343
  77    -2.1568505008864e-16
  78    -0.043294140684713
  79     0.014320711851233
  80     0.010635648498373
  81    -2.1000520225933e-16
  82    -0.0051147178018341
  83    0.0052764124088882
  84    -1.7009423129524e-17
  85    -0.037016776563159
  86     0.068169661384897
  87      0.11118903595527
  88    8.4735448319879e-16
  89    -0.057771608034606
  90     -0.20515421936287
  91    3.1569697149446e-16
  92    0.0051742876495364
  93    -0.039295910274983
  94    0.0025787814447733
  95    1.5328939928746e-16
  96    -0.0093082322374314
  97    -0.0026698832454045
  98    1.1816656685844e-16
  99     0.069898236978844
 100     -0.14361860413679
 101     -0.16642483347001
 102    2.0455803967297e-16
 103      0.11576195557938
 104    -0.014370002071928
 105    -1.6562071000045e-16
 106     0.034755079245196
 107    -0.017874229436907
 108    -0.012663256909434
 109    -1.1623534320947e-16
 110     0.001420628467512
 111    -0.00051661312989994
 112    -2.3887060520151e-17
 113    -0.054787075626427
 114      0.11040520482666
 115     0.098905656885523
 116    -3.417158127975e-16
 117     0.025380786426098
 118     -0.01524014008369
 119    -9.1601905795693e-16
 120     0.013677633505467
 121      0.01622987776287
 122     0.007409159183961
 123    1.8429777707139e-17
 124    0.0084780712636108
 125    -0.00012649643019379
 126    2.9859988694975e-17
 127     -0.01494258587672
 128     0.029797379039586
 129    -0.019600951367224
 130    2.5863752436997e-15
 131     0.043727098269108
 132     0.030497761269745
 133    2.5774311148799e-15
 134     0.033508868388055
 135      0.03405530258766
 136    0.0014054835978064
 137    -2.4734945763691e-16
 138     0.013597327993347
 139    -0.0010481455517018
 140    -2.7057327666914e-16
 141    -0.026017479080147
 142    -0.0047107198253554
 143     0.089990114804292
 144    -0.0011435316056895
 145     0.053648754638459
 146     0.013441482454923
 147    -0.058507683666655
 148    -0.014448446213204
 149      0.04282210658664
 150      0.01034652548191
 151    -0.091580467610768
 152    -0.028974144414236
 153     0.051660570082654
 154     0.013743189794015
 155     0.036750604064594
 156     0.020330104025309
 Sym= A
 Ene=   -0.8547052889
 Spin= Alpha
 Occup=    2.00000
   1    -0.039111933963184
   2     0.071657570709291
   3      0.20787878973531
   4    -1.2002470146454e-15
   5     -0.04045831363031
   6      0.10626023607438
   7    -1.4192676841075e-15
   8    -0.011587694491065
   9     0.074066842502865
  10    0.0067300801792415
  11    6.4174084971336e-17
  12    -0.00068764395309944
  13    -0.00083287136597733
  14    -1.3201704648985e-16
  15     0.049069179249884
  16    -0.095731022911639
  17    -0.094944093228609
  18    -1.428376332756e-16
  19    -0.0096678356280319
  20     0.016921488889565
  21     4.66167475443e-16
  22    -0.006899221044245
  23    -0.0061276625315057
  24    -0.0011222248660891
  25    2.5699041716269e-16
  26    -0.0006498136412998
  27    0.0046610347154557
  28    -1.7746423286409e-16
  29    0.0029938237219947
  30    -0.0064359748224545
  31    -0.0013259561599755
  32    -1.3614973753153e-15
  33    -0.061604945250474
  34    -0.039470069197817
  35    -1.476470001401e-15
  36    -0.016637561126864
  37    -0.0024815842103218
  38    -0.0051090297081164
  39    1.307606666524e-16
  40    -0.0028337457740374
  41    -0.0032083236333145
  42    -1.1691412197499e-15
  43    -0.051544165511203
  44      0.10524009537701
  45     0.084530039142439
  46    1.6602738692791e-16
  47    -0.0020610694759307
  48    -0.030355137488942
  49    9.2516491738659e-16
  50    -0.010246769160304
  51     -0.02111624482122
  52    0.0027363294797795
  53    -2.8340901020346e-16
  54    0.0026182413328023
  55    -0.0039331541663943
  56    4.9223451067403e-16
  57     0.023478045073398
  58    -0.047402668111213
  59    -0.015322926472841
  60    1.050290540085e-15
  61     0.014607512055131
  62    -0.079148806946554
  63    3.5487458277946e-16
  64     0.023655994724477
  65    -0.013915700489717
  66    -0.0010273270362001
  67    5.9192018896712e-16
  68    -0.0044434065501576
  69    0.0018689138520824
  70    -2.1194048007859e-16
  71     0.022769760216277
  72    -0.048265378581199
  73    -0.029485345421726
  74    1.7734600597415e-16
  75     0.091251810203125
  76     0.028192604315666
  77    6.886303905962e-16
  78     0.029014003671903
  79     0.046108238990375
  80    -0.0069249886280582
  81    -1.5220532234628e-16
  82    -0.00019480525255848
  83    -0.0031965455839117
  84    -3.0037828158805e-16
  85     0.010508902598725
  86    -0.025872841063234
  87     0.018350263892132
  88    4.2581443761952e-16
  89    -0.010359540254983
  90      0.01750133038271
  91    -2.297732411398e-17
  92     0.038813158916383
  93     0.040023892190259
  94    0.0057704881688023
  95    6.3390326906929e-17
  96    -0.0096354279437551
  97    0.0037720643855874
  98    1.0430144708415e-16
  99    -0.064978787865263
 100      0.13441440334811
 101     0.077374293807665
 102    1.8147425559405e-16
 103      -0.1081976238946
 104      0.24769727697888
 105    -3.6332163379831e-16
 106    -0.043646731155152
 107      0.14628743102375
 108    0.0022546981176571
 109    -4.7810877467191e-16
 110    0.0019767313340292
 111    -0.0050800815292157
 112    7.7175312105169e-17
 113    -0.034557318683137
 114     0.071914296586874
 115    -0.004170464244631
 116    3.5624476230024e-16
 117     0.082665773441858
 118      0.23856018610061
 119    -2.1260364139564e-16
 120     0.054611391559466
 121      0.13489473349318
 122    0.0055066756457418
 123    -1.6253127830134e-16
 124    -0.0061437113075242
 125    -0.003073979547023
 126    -8.3458457150901e-17
 127     0.028951463941106
 128    -0.066829861681972
 129    -0.025876621705379
 130    1.8249510524058e-15
 131    -0.014354102706963
 132     -0.22863116989825
 133    9.7182921825121e-16
 134     0.042917214892296
 135      0.14945825954906
 136    -0.004835058391397
 137    7.721560965503e-16
 138    0.0065266606437417
 139    0.0052230687893467
 140    -1.2041250196539e-16
 141    -0.041280366075047
 142    -0.012002776051412
 143    -0.0019482105277197
 144    0.0023922168471503
 145     0.053153936251887
 146     0.014425841158142
 147     -0.02467981856665
 148    -0.0040582420571607
 149    -0.0074253130042287
 150    0.0081466884831168
 151      0.17753228010362
 152     0.052472734027284
 153      0.14446000236599
 154     0.040689218161914
 155    -0.0026102126227894
 156    -0.0015792511231499
 Sym= A
 Ene=    -0.799794006
 Spin= Alpha
 Occup=    2.00000
   1    -0.021211442551048
   2     0.033395352120215
   3     0.099005944497732
   4    -3.9233427775451e-16
   5      0.22742484581086
   6     0.087356884223929
   7    9.7119867987737e-16
   8     0.051934995218988
   9     0.032624166420647
  10     0.015709945701992
  11    -6.3058289939642e-16
  12    0.0027305080881417
  13       0.0104516061166
  14    -2.9685615617506e-16
  15    -0.025828472390378
  16     0.053595785949479
  17      0.03749517483639
  18    3.7081137130933e-15
  19     0.066348943212757
  20     0.078821382664173
  21    2.4948771590653e-15
  22     0.035941524428751
  23      0.03050700738109
  24    0.0028628450744713
  25    8.1235639122494e-16
  26    -0.0016928390790574
  27    -0.0015998028559291
  28    -8.1871607960595e-17
  29     0.032903474729789
  30    -0.065705365352904
  31    -0.034679090495481
  32    -8.8870535486271e-16
  33    -0.0078624144201532
  34    -0.0066544959265134
  35    -2.0998686759219e-15
  36    -0.0060167215253025
  37     0.015574203671449
  38    -0.0030896503586722
  39    -1.5574696910683e-16
  40    0.0019109650539181
  41    0.00097171755495611
  42    -3.0430057941836e-16
  43    -0.032501002590107
  44     0.066809966147395
  45     0.055571556830842
  46    -3.3360967788539e-15
  47    -0.082013919566961
  48    -0.021950361761319
  49    6.2465601939173e-17
  50    -0.034822350081688
  51    -0.020782013241981
  52    0.0045854858518051
  53    -4.4888040598057e-16
  54    0.00048194992575027
  55    -0.00071818500509185
  56    4.6034007040373e-16
  57    -0.018782378613813
  58     0.037763582197078
  59     0.065184910151651
  60    3.1874251715237e-16
  61    -0.080538342875953
  62    -0.077296978844941
  63    -7.0111507045239e-16
  64    -0.013855980155295
  65    -0.011923404479512
  66    0.00060917642203295
  67    2.4174633867223e-16
  68    -0.0074081590676362
  69    -0.0019285865088793
  70    1.7212791627142e-16
  71      0.05966150258977
  72      -0.1250486737161
  73     -0.11687874414244
  74    1.1460280451875e-17
  75     -0.15622002726034
  76     0.089839608982253
  77    6.5010144714136e-16
  78    -0.044855320054374
  79     0.055361015486276
  80    0.0041843810091313
  81    -2.0509252027861e-16
  82    -0.010221470487103
  83    0.0072352580288308
  84    4.4917855180248e-16
  85    -0.054148304076723
  86      0.10323145605018
  87      0.11559110066894
  88    -3.8107454690166e-16
  89     -0.22108498858183
  90     0.055922066433897
  91    -9.8387352536238e-17
  92    -0.091390850168918
  93     0.044178745139264
  94    -0.0042226459440725
  95    -1.008732828227e-16
  96    0.0046001746178741
  97    -0.0080878246542079
  98    -1.0064272913745e-16
  99     0.020156778578872
 100    -0.047346025021033
 101    -0.075543514364085
 102    -5.6807002247528e-16
 103     -0.11444523976443
 104      0.02433080381917
 105    7.7826060873767e-17
 106    -0.040338575919521
 107     0.022715774601296
 108    -0.0047048653065171
 109    3.9643294094739e-17
 110    0.0054045134882651
 111    0.00038244755708146
 112    5.9647743369569e-17
 113    -0.0099971973142343
 114     0.019135976278895
 115    -0.015464340283983
 116    -9.3352262863542e-16
 117     0.077343129270518
 118     -0.11673775938525
 119    1.5864081766912e-16
 120     0.039513101453813
 121    -0.019542531178946
 122      0.01138291507577
 123    5.540695900578e-17
 124    0.0027659246944362
 125    0.0081317115068975
 126    6.9589426755979e-17
 127    -0.047323329725281
 128     0.091768323839619
 129      0.14915900370441
 130    -3.3416041931362e-15
 131      0.19253944403109
 132    -0.095134597747944
 133    -2.6771271046428e-15
 134      0.05030579221556
 135     0.058707412230861
 136    0.0053131394964796
 137    4.0630610814755e-16
 138    0.0017360737617317
 139    0.0075591702909502
 140    -6.583590531073e-16
 141     0.050060239367906
 142     0.015698063809105
 143    -0.031312718656896
 144    0.0005027479382036
 145     0.055638911741063
 146     0.018827618106559
 147     0.055846828128369
 148     0.031439611644544
 149      0.16004238302133
 150     0.066356302737824
 151     0.015246813159507
 152    0.0032566357682946
 153    -0.015309464173483
 154    -0.010076550254517
 155    -0.015092283825679
 156    -0.0091691982945316
 Sym= A
 Ene=   -0.7503704468
 Spin= Alpha
 Occup=    2.00000
   1     0.005472794465267
   2    -0.018142949623218
   3     0.032691088361299
   4     1.63555630973e-16
   5    -0.0041413348524592
   6      0.19060517000269
   7    -1.6714182886264e-15
   8     0.006852899660618
   9     0.059031198858882
  10    0.0056147823018875
  11    3.0390927657835e-17
  12     0.013527751336453
  13    0.0048460243311733
  14    -1.8632759434767e-16
  15      0.04531956456554
  16    -0.090361643934712
  17    -0.074067728504237
  18    7.2640837005269e-15
  19    0.0086881910439871
  20      -0.1213561252989
  21    6.9450381564316e-15
  22    -0.016920678913118
  23    -0.051585683320662
  24    0.0026544305773093
  25    -1.4660627317667e-15
  26    0.0076067612000973
  27    0.0058118860056612
  28    -3.8297750210193e-16
  29     -0.07745649697993
  30      0.15741858679477
  31      0.13524120485012
  32    -7.4481687829353e-15
  33     0.076375003075048
  34     -0.10472259867896
  35    -5.9637842949183e-16
  36     0.026791854699345
  37    -0.065485908125723
  38     0.004731213308306
  39    -2.2879326310332e-16
  40    -0.0048790326410917
  41    -0.001861085537429
  42    3.4927988012065e-15
  43     0.058620808640306
  44     -0.12121342085478
  45     -0.11043076973062
  46    -9.1542662617549e-15
  47      0.10474795569207
  48    0.0014708958134679
  49    -1.0645557816834e-14
  50     0.045575802949453
  51       0.0203186534785
  52    -0.0086284528714142
  53    1.2276570891821e-15
  54    -0.0062395063396963
  55     0.000207831005025
  56    -2.516801640113e-15
  57    -0.027119302660542
  58     0.053306917992768
  59     0.069574112047605
  60    -3.5904440265259e-15
  61    -0.029999260424035
  62      0.16153545872113
  63    1.5093570605243e-15
  64    -0.017466634130552
  65     0.053196668046704
  66    -0.00092644987294327
  67    -7.3098749237303e-16
  68    0.0089462901626384
  69    -0.0039058651104829
  70    4.4907883143103e-16
  71    -0.019330136657589
  72     0.038024568413915
  73     0.087148099869844
  74    -1.0102626798023e-16
  75    -0.090702531126024
  76     -0.11875630061505
  77    -7.7317289522917e-16
  78    -0.027655963992729
  79      0.01586841823106
  80    -0.0026253013449259
  81    3.4886052273733e-16
  82    0.0079511594255772
  83    -0.0023732320071297
  84    4.7451272335974e-16
  85     0.036339456169908
  86    -0.074073700834822
  87     -0.10201931611024
  88    1.5825948577453e-15
  89    -0.060290522198384
  90     0.035819541033699
  91    1.4073930007182e-15
  92    -0.0049375647247625
  93     0.041221254664295
  94    0.00095094200309279
  95    -3.3457157239205e-17
  96    7.9281819040724e-05
  97    0.0032174002843889
  98    2.7824562226997e-16
  99    -0.032587885717273
 100     0.064184083029616
 101     0.044743439982299
 102    9.6103548613469e-17
 103    -0.066780631258436
 104      0.14555935351606
 105    -6.3616055911059e-16
 106    -0.038290127205171
 107     0.097126875882574
 108    0.0001094577570395
 109    -3.3500750557225e-16
 110    -0.010967943881006
 111    -0.0016976063544562
 112    -2.9373709038185e-17
 113     0.031457680038174
 114    -0.065975910580636
 115     -0.11301978907715
 116    1.0506943927791e-17
 117    -0.056616909858786
 118     -0.12135859936929
 119    -2.4571776418715e-16
 120    -0.016134436336884
 121    -0.050509799080939
 122     -0.00354696560047
 123    -7.8522853692147e-18
 124    -0.010036107350368
 125    0.0029708208266396
 126    5.1730305294016e-17
 127     -0.04699578776605
 128     0.093434789950353
 129      0.11523239212612
 130    1.1616263023014e-15
 131      0.11919602752677
 132     -0.11202266119337
 133    1.2175858235553e-15
 134     0.022996157716671
 135     0.052202624755052
 136      0.01263957174227
 137    2.5475736331104e-16
 138     0.010754522637947
 139    0.0083699150113523
 140    -5.3456474764088e-16
 141    -0.034693327191006
 142    -0.010633255818565
 143      0.15940310053203
 144     0.024341371586974
 145    -0.081304835109124
 146    -0.032059616067431
 147     0.039508210050952
 148     0.017567053178156
 149    0.0041927807940231
 150    0.0092032091737583
 151      0.11585683687761
 152     0.046093453750096
 153     -0.10532795991628
 154    -0.052494639549482
 155     0.083990457242945
 156     0.046968643126534
 Sym= A
 Ene=   -0.7390142757
 Spin= Alpha
 Occup=    2.00000
   1      0.03114669635703
   2    -0.061711455315154
   3    0.0092197819630757
   4    1.8674248256893e-14
   5     0.026935960167937
   6      0.10808083980593
   7    5.4907563276155e-15
   8    0.0010100179328588
   9      0.07456898274616
  10    0.0088727589114863
  11    2.0978283213789e-15
  12    -0.0033992376833054
  13    0.0058062374419666
  14    -9.2143515878564e-16
  15    -0.026323917030878
  16      0.05241983422225
  17     0.086300340674781
  18    7.8744158844214e-15
  19     0.079196558083494
  20     -0.10522457705958
  21    4.7325265212968e-15
  22      0.02075902616736
  23    -0.024159907142612
  24    -0.0016826704541486
  25    -7.0147878159097e-16
  26    0.0077024428164223
  27    -0.0029263684188349
  28    -3.5849948270681e-16
  29    -0.024743443690233
  30     0.049879762524884
  31     0.052114241010522
  32    -3.0369435917195e-15
  33      0.13026374646646
  34      -0.0101899390112
  35    1.2947960926785e-15
  36     0.031558830175693
  37    -0.019631679397452
  38    0.0061156216160707
  39    -1.1933474545777e-16
  40    0.0016392287408782
  41    0.0028670721027115
  42    3.5639260921108e-15
  43     0.048558609511232
  44     -0.10186976694665
  45    -0.092789249105656
  46    -1.1246549869676e-14
  47    -0.047856513620465
  48     0.059598422979409
  49    -9.8365050427007e-15
  50    -0.0085113238753714
  51     0.036305912085041
  52    -0.0024081740022723
  53    2.8336965736945e-16
  54    -0.0090951628901311
  55    0.0029639718852279
  56    -1.1970793655398e-15
  57     -0.06140879462961
  58      0.12133891902477
  59       0.1488759975283
  60    2.1460965815386e-15
  61     -0.11170433632206
  62     0.013052978698094
  63    2.824897879204e-15
  64    -0.058651532230548
  65     0.021962509800019
  66    -0.0046520453940112
  67    6.2932179464102e-17
  68    -0.00019051865928038
  69    -0.0087219709961065
  70    5.7885417102999e-16
  71     0.033374945938982
  72    -0.064978676509727
  73    -0.061755265533182
  74    1.4776064661955e-14
  75    -0.058875616609962
  76    -0.038806582810651
  77    6.0103275698037e-15
  78    -0.0048997909973477
  79     0.013590952748039
  80    0.0011231057221882
  81    1.4510969620551e-15
  82     0.011679989461964
  83     0.002223700669337
  84    1.2432053601778e-15
  85    -0.013632617917272
  86     0.032460124124083
  87     0.047642282951704
  88    2.3976517809416e-14
  89      0.13100827610054
  90     0.092700290131834
  91    9.9970403101267e-15
  92     0.074180756464114
  93     0.028392929345368
  94    -0.0082714934719717
  95    -3.2010205895341e-16
  96    0.0055678346730129
  97    -0.0056269263715689
  98    2.2341648664115e-15
  99     0.032791637101139
 100    -0.064980051900362
 101     -0.13591774517505
 102    2.4831287458012e-14
 103    -0.068783120586249
 104     -0.14448757110788
 105    1.1006758187706e-14
 106    -0.018944836748305
 107     -0.03796482649508
 108    0.0092519817737747
 109    -2.3859587924029e-15
 110     0.017400918624128
 111    0.0066540959252318
 112    1.2328267448632e-15
 113    -0.037812174727309
 114     0.079271565817123
 115     0.014552455415133
 116    1.6851834606936e-14
 117      0.20349955687942
 118       0.1939988002151
 119    5.9378461414531e-15
 120      0.11061023078368
 121      0.15644817756557
 122     0.014450606618314
 123    -1.2402204639052e-15
 124      0.01203382568961
 125    0.0031699252619748
 126    -2.1800794632931e-15
 127    -0.0088912923980128
 128     0.020797419417686
 129     0.053297360770667
 130    3.4847072833319e-14
 131     -0.13084480424613
 132     -0.10545211623968
 133    1.5848467151129e-14
 134     0.035849312907931
 135      0.13140037732894
 136    -0.017380137223398
 137    1.1076729446518e-15
 138    -0.011308206388971
 139    -0.010357801256032
 140    -1.8035913103183e-15
 141     0.061439496332003
 142     0.029520372704923
 143      0.07405262148317
 144     0.014823272627858
 145    -0.060166655445055
 146    -0.023036116530691
 147      0.11314467391196
 148     0.052725008799044
 149    -0.039802926005359
 150    -0.0045368327055419
 151    -0.083552724485092
 152      -0.0450664319102
 153      0.19001599822624
 154     0.077841163553085
 155     0.043102805384445
 156     0.024017664161764
 Sym= A
 Ene=   -0.7266689286
 Spin= Alpha
 Occup=    2.00000
   1    -2.5699969807589e-15
   2    5.8098793647391e-15
   3    -6.6805200609984e-15
   4      0.16653485269885
   5    -3.3412744625882e-15
   6    -8.3587011073095e-15
   7     0.056947535526964
   8    -2.5601172697116e-15
   9    -1.2561769060793e-14
  10    4.4672402119514e-17
  11     0.017994973218051
  12    -2.4154288110909e-16
  13    -7.6337582914592e-16
  14    -0.0084390811737869
  15    6.9957170127273e-16
  16    -1.5528226184742e-15
  17    -4.8911380894512e-15
  18     0.034161767826765
  19    -5.423088459152e-15
  20    8.6817467949485e-15
  21     0.014874205125095
  22    4.2720534953732e-16
  23    2.7090679103325e-15
  24    -8.9123026776116e-18
  25    0.0044505753615593
  26    -5.9995533369162e-16
  27    3.272362680619e-16
  28    -0.0030241381378801
  29    3.2317916792778e-15
  30    -6.869271132056e-15
  31    -4.5742518753018e-15
  32    0.0098018810863441
  33    -1.0658748627898e-14
  34    4.0107964127322e-15
  35    0.0032641807369376
  36    -2.4576230457849e-15
  37    3.7373676526664e-15
  38    -7.6792533811024e-16
  39    0.0013644324771083
  40    4.3082864772457e-17
  41    -6.4113766205341e-17
  42    1.3380614005384e-05
  43    -4.5155200612051e-15
  44    9.8496461843195e-15
  45    6.2931765916356e-15
  46     0.011553085761735
  47    1.3829918604103e-15
  48    -4.2748489719827e-15
  49    0.0063866723284139
  50    -4.6706575725418e-16
  51    -4.9607228266665e-15
  52    2.9719597675556e-16
  53    0.0015148393670117
  54    8.7975810565385e-16
  55    -1.5862817554397e-16
  56    -0.00019857200129282
  57    5.2714052375738e-15
  58    -9.7721852656646e-15
  59    -1.3243711787509e-14
  60      0.03549316694704
  61    1.0480554028243e-14
  62    -4.7509947112266e-15
  63     0.012589209501833
  64    5.2866367828436e-15
  65    -5.8173716868128e-15
  66    5.2811309245784e-16
  67    0.0035742029473344
  68    -1.2434298135788e-16
  69    8.7473235805241e-16
  70    0.0026835246001482
  71    -2.7723911178639e-15
  72    5.8889454628851e-15
  73    5.2232598261401e-15
  74       0.1499640636511
  75    4.6625261066062e-15
  76    6.9513223233448e-15
  77      0.06369676671792
  78    -3.2539031373291e-15
  79    -8.7005081239982e-16
  80    2.9420671458232e-16
  81     0.014451184940516
  82    -1.196212646176e-15
  83    -4.4672311188216e-16
  84    0.0087251560320811
  85     1.55320322087e-15
  86    -2.6534784903585e-15
  87    -4.9401753899596e-15
  88      0.24556166559263
  89    -1.3683592900546e-14
  90    -1.3734386527211e-14
  91      0.10749148667051
  92    -6.9352873682464e-15
  93    -2.5463441994601e-15
  94    5.5105705484507e-16
  95    -0.0014392406193609
  96    -8.998928879436e-16
  97    1.2455932661137e-16
  98      0.02255530572273
  99    -3.8755256968264e-15
 100    8.976149804247e-15
 101    1.4766199329488e-14
 102      0.25449136838824
 103    1.1542026147713e-14
 104    1.8137285944524e-14
 105      0.11479947114617
 106    3.6408366311133e-15
 107    5.4461371381227e-15
 108    -1.0885199808018e-15
 109    -0.026783878255552
 110    -1.9949701284825e-15
 111    -1.214901019687e-15
 112     0.011679995614049
 113    3.8914056473891e-15
 114    -7.9971957739789e-15
 115    -6.6891966909935e-16
 116      0.17749269137892
 117    -2.6001678154603e-14
 118    -1.8807741770813e-14
 119     0.069943833060097
 120    -1.3941711430277e-14
 121    -1.5771855939148e-14
 122    -1.8005290694067e-15
 123    -0.011585954557762
 124    -1.4504281750025e-15
 125    -7.7733367700748e-16
 126    -0.021188497781197
 127    6.4878801535438e-16
 128    2.5016432514164e-15
 129    -5.021935055967e-15
 130       0.3261153935327
 131    9.5111453806866e-15
 132    7.7925242545217e-15
 133      0.14372297061649
 134    -1.1127004508138e-15
 135    -1.8269096768971e-14
 136    2.0348567185579e-15
 137     0.012237364129358
 138    1.8001718990349e-15
 139    -3.8404913811021e-17
 140     -0.02085434162347
 141    -3.5766780829203e-15
 142    -2.3206602059294e-15
 143    -9.2073139742246e-15
 144    -2.4933728856744e-15
 145    5.9372224659949e-15
 146    1.8813252735198e-15
 147    -1.0117836992054e-14
 148    -5.8723735424309e-15
 149    5.0604485409162e-15
 150    1.9132692286429e-15
 151    9.1709098671642e-15
 152    4.9925637053787e-15
 153    -2.0816848492384e-14
 154    -9.2502494169351e-15
 155    -5.1102827611497e-15
 156    -3.0248069085695e-15
 Sym= A
 Ene=   -0.6962348413
 Spin= Alpha
 Occup=    2.00000
   1    -0.019033265742669
   2     0.040488209183329
   3    -0.035103554268267
   4    4.5392347562345e-16
   5    0.0068937129991593
   6    -0.028442820306551
   7    1.5128247333551e-16
   8      0.03332549877683
   9    -0.084332012820197
  10    0.0038224279702482
  11    5.6708031870564e-16
  12     0.010539706094941
  13    0.0025277437131331
  14    -3.7709250148468e-16
  15     0.046048761674286
  16    -0.093796476429664
  17     -0.13669527926269
  18    -6.019205509391e-15
  19     -0.14699627634612
  20     0.029642006735531
  21    -4.3134998794898e-15
  22    -0.062871942399192
  23    -0.021272321407532
  24     0.004730019481937
  25    4.703651336773e-16
  26    -0.00080436188851454
  27    0.0073391534042387
  28    2.618546186112e-16
  29    -0.019661894366815
  30     0.037688022343288
  31    0.0095445816907048
  32    6.6854222017825e-15
  33     -0.12188616303867
  34      0.03164525483907
  35    1.3570360556025e-15
  36     -0.03368687986046
  37    1.0154079992012e-05
  38    -0.0023554665845399
  39    5.2065537774141e-16
  40    -0.0061041692183893
  41    -0.0038834172806058
  42    -3.0849417919648e-15
  43    0.0044592336736584
  44    -0.0086538395227367
  45    -0.011494432032341
  46    1.5657772218115e-14
  47      0.17332995145907
  48     0.067623889547004
  49    1.0833790253954e-14
  50     0.061620239615504
  51     0.035032552032315
  52    -0.0056188404339714
  53    1.6009091674505e-16
  54    -0.00013835249035691
  55    -0.0015621941803851
  56    5.2012010158356e-16
  57     0.017214301482444
  58     -0.03781806873547
  59    0.0002091202572355
  60    -1.4437046017241e-15
  61      0.16300440516545
  62      0.10124905265556
  63    -2.7572214883111e-15
  64     0.079313752395057
  65     0.055123551118651
  66     0.004332302662777
  67    -5.6912362626051e-16
  68    0.0054112597530287
  69    0.0044484089759927
  70    -5.1989977901253e-16
  71    0.0020584532296702
  72    -0.0022082056617407
  73     0.069526987755444
  74    -4.467905204439e-19
  75    -0.021182718643604
  76     -0.19590949826532
  77    -9.9838937452927e-16
  78     0.050882169243712
  79     0.031968808827986
  80    -0.0047346922172754
  81    9.7760096786831e-16
  82    -0.0041743783967495
  83    -0.0023767357292744
  84    1.6232220950056e-16
  85    -0.018089737068267
  86     0.039349937110834
  87    -0.061992615440611
  88    4.3856511952564e-15
  89    -0.071124114172546
  90      0.22737232319427
  91    2.6215376898139e-15
  92    -0.092336817337847
  93     0.087141619051752
  94    -0.0088806662834987
  95    -2.2183872512217e-17
  96    0.0089148406086099
  97    -0.0054520114534213
  98    4.2439044456638e-16
  99     0.027738737556911
 100     -0.06195856120801
 101    -0.043479484403615
 102    6.9340218028869e-15
 103     -0.15272841888124
 104     -0.14773408286639
 105    3.3888256590123e-15
 106    -0.049808438238968
 107    -0.096932230686308
 108    0.0040058992592807
 109    -2.9810903229202e-16
 110     0.014741696431023
 111    0.0039405346138047
 112    4.5387839177235e-16
 113    -0.031690179405748
 114     0.065194857265402
 115     0.087184022731761
 116    3.6761523013441e-15
 117      0.18703714652922
 118    -0.026596578873995
 119    1.5076700300843e-15
 120     0.081716770371741
 121     0.021235679253292
 122     0.016106306887571
 123    -2.0155197893502e-16
 124     0.013082294365144
 125    0.0086179104193099
 126    -6.126864278722e-16
 127    -0.012873581951129
 128     0.020329067882587
 129      0.17108483427525
 130    5.7308017938549e-15
 131     0.067335258517692
 132    -0.00090404846546721
 133    2.8982169815639e-15
 134     0.020418584166465
 135    -0.035546260269148
 136    -0.006487043936841
 137    4.7587128966194e-16
 138    -0.0046783833709771
 139    -0.0010578074921497
 140    -6.0150219163607e-16
 141     -0.11750135320943
 142    -0.055847638305352
 143    -0.037487782766905
 144    -0.016019219002963
 145    -0.080714286055093
 146    -0.041493376425841
 147     -0.10582237172781
 148    -0.058718801678294
 149     0.073802398324075
 150     0.036657512730275
 151    -0.062585569286864
 152    -0.025130059000372
 153     0.087149393564506
 154     0.045781042576096
 155    -0.025377927255393
 156    -0.014270489700192
 Sym= A
 Ene=   -0.6412392925
 Spin= Alpha
 Occup=    2.00000
   1     0.042787369942195
   2    -0.088186310462325
   3     -0.14372466792617
   4    -4.8385182015267e-15
   5    -0.022717657824808
   6      0.14984549360459
   7    -5.5388403306474e-15
   8    -0.0066878403850657
   9     0.027826793400143
  10    0.0067737341737045
  11    1.376643803631e-15
  12    0.0021717957541361
  13    0.0052863541978472
  14    -1.6917222231216e-16
  15    -0.019832909588784
  16     0.039238801666651
  17     0.065249806514261
  18    -1.6755871709047e-14
  19    -0.042342664937828
  20     -0.21491945682103
  21    -1.0930909508641e-14
  22     -0.02784673494244
  23    -0.076274060169933
  24    -0.0041397227920511
  25    -1.7911477272641e-15
  26     0.016740125119994
  27    -0.0024834321951692
  28    8.064345873527e-16
  29    -0.020273791111625
  30     0.035584506063534
  31    0.0047517720644425
  32    1.7137223856619e-14
  33    -0.020792003630809
  34        0.257978353741
  35    7.2855520542657e-15
  36    -0.017218658262537
  37     0.071025989467111
  38    0.0022792652307044
  39    2.1417723348121e-15
  40     0.003408102097807
  41    -0.0012415876465033
  42    -2.9042248274964e-15
  43    0.0064392208662287
  44    -0.013949123597199
  45    -0.032962297997753
  46    1.4867078770012e-14
  47     0.056507657588715
  48      0.28306027532087
  49    1.0640970256092e-14
  50     0.043437426088117
  51      0.13375961908837
  52    -0.006785161140313
  53    -8.8099979545865e-16
  54      -0.0107982500572
  55    -0.00020044187990268
  56    2.666824606056e-15
  57    -0.018718924744554
  58     0.039312147175004
  59     0.012897369487608
  60    5.7091001149529e-16
  61     0.040255891652854
  62     -0.16283015648762
  63    -2.1558539997997e-15
  64    -0.0014977207123794
  65    -0.067431720619054
  66    -0.0033206373600881
  67    -9.2912440161513e-17
  68    -0.013701401663985
  69    -0.0016651956195444
  70    -7.648573659877e-16
  71     0.027637619737448
  72    -0.058635956750283
  73    -0.090255733784536
  74    -6.8234230245686e-15
  75    -6.1163121510987e-05
  76      0.13384081515735
  77    -4.9460804174023e-15
  78    -0.012808488532583
  79    0.0054170622766384
  80     0.007865261839031
  81    2.529270988789e-17
  82    0.00065875949405221
  83       0.0050522047887
  84    -3.1658548397213e-16
  85    -0.0063398846797146
  86     0.009960757268724
  87     0.049061285105836
  88    -1.4969775251725e-15
  89    -0.011068464259509
  90     -0.10121761513028
  91    6.1516358518924e-16
  92    0.0068606288235656
  93    -0.040641322056218
  94      0.00178525697201
  95    2.6339017410906e-16
  96    -0.007109897132073
  97    -0.00035639291808083
  98    2.0671610329815e-16
  99    0.00061390788759623
 100    -0.0024456140996406
 101    -0.0097636584648199
 102    -3.3641796378961e-15
 103     0.012295148452503
 104     0.096204779285123
 105    -3.8872634896211e-15
 106    -0.0050072614337587
 107     0.057679982167774
 108    -0.0019262969738015
 109    -6.7595530405433e-17
 110    -0.0059660236313767
 111    -0.00074115935835624
 112    -1.9376554707127e-16
 113    0.0039915969900693
 114    -0.0090117932156243
 115    0.0037217914011988
 116    -3.0958966839654e-15
 117    -0.026913515018587
 118    -0.031957651079448
 119    -4.169687624915e-15
 120    -0.020433813071742
 121    -0.027275230041192
 122    -0.0011894627461889
 123    4.6893346579804e-17
 124    -0.0042439341159816
 125    0.00048425303512259
 126    2.969087910655e-16
 127    -0.024441202884241
 128     0.049212204169812
 129     0.082658677874198
 130    3.0678208017219e-15
 131     0.026986811058115
 132    -0.066194553198071
 133    7.071993972955e-15
 134    -0.0062778434942164
 135    -0.032345050701623
 136    0.0026255395466108
 137    -1.5010434532626e-16
 138     0.011172355756695
 139    0.00082103737288266
 140    -2.3833261125773e-16
 141    -0.0014318215071993
 142    0.0013673258384938
 143      -0.1560859432755
 144    -0.070480587841164
 145      -0.1613289035517
 146     -0.08830693617923
 147    -0.0032659402171297
 148    -0.0089745398624255
 149     0.002538934372043
 150    -0.0028046659593459
 151     0.046376958666398
 152     0.024814649257636
 153    -0.030849784181399
 154    -0.015756846512462
 155    -0.096296040961887
 156    -0.059043730532792
 Sym= A
 Ene=   -0.5909775271
 Spin= Alpha
 Occup=    2.00000
   1     0.052465125806443
   2      -0.1065341542862
   3     -0.13722517075694
   4    -1.4405144690162e-16
   5     -0.02025785399219
   6      0.14530718739117
   7    -1.8512875562191e-15
   8    -0.028849214242451
   9     0.016429479117673
  10    -0.0043180152932557
  11    4.056367778381e-16
  12    0.0055409975425293
  13    -0.0012927958598524
  14    -1.1387838274135e-16
  15    -0.023737998114349
  16     0.049449628352665
  17     0.037135196095476
  18    -3.0181231210446e-16
  19      0.29906106604448
  20    -0.085343331053147
  21    -1.6752914014129e-15
  22      0.16889473994381
  23    0.0073363953391168
  24       -0.017075694916
  25    -7.4899241410057e-16
  26    0.0074563686156952
  27    -0.014041567286056
  28    2.4664113305584e-16
  29     0.028547120075162
  30    -0.060305484102502
  31    0.0046939228916467
  32    4.6563444899874e-16
  33    -0.0018583743904111
  34    0.0023194933812378
  35    2.3930668755518e-17
  36    -0.017929887888899
  37     0.047671265915628
  38    -0.0080316131281754
  39    1.6687990036356e-16
  40    0.0064213523711382
  41    -0.003633433655292
  42    -3.4424969910264e-16
  43    -0.028425595184089
  44     0.063702344575107
  45     0.015985329490013
  46    1.5189699501876e-15
  47    -0.028883962059574
  48    -0.032380102444129
  49    1.2326629557937e-15
  50    -0.040545096656653
  51    -0.062787288592067
  52    0.0097560632757242
  53    -5.3635083420038e-16
  54    0.0075104059967271
  55    0.0043536700299093
  56    2.8555745837014e-16
  57     0.011003486218099
  58     -0.02311860203641
  59     0.026243877645618
  60    2.3631001329699e-15
  61      0.26670191244173
  62      0.10675633252185
  63    1.4714942308766e-15
  64      0.17088475811155
  65     0.035165378010951
  66     0.018331059505212
  67    2.5263359766352e-16
  68    0.0073819127204108
  69     0.013728882034552
  70    -8.9701188294613e-16
  71    -0.046309004534783
  72     0.097094794657257
  73      0.13635664631902
  74    1.6926267109904e-15
  75    -0.089414969137914
  76     -0.13059964520397
  77    1.8256938725151e-15
  78    -0.041679461160328
  79     0.037662724464461
  80    0.0083243689394231
  81    1.040031396589e-16
  82    0.0090808527380577
  83    0.0043693154460271
  84    -9.3587708422653e-17
  85      0.01316651233027
  86    -0.024072170178742
  87    -0.085146147631836
  88    1.4232143785225e-17
  89     0.048403500029051
  90     0.019148556052539
  91    -3.5132148710624e-16
  92      0.03757182377373
  93     0.037185429267671
  94    -6.9279946361708e-05
  95    -1.2444356460496e-16
  96    0.0036304608665758
  97    0.0022403214542589
  98    1.2443764195576e-17
  99    -0.0010063290582387
 100    -0.00012962764398545
 101    -0.0042186769704869
 102    -2.0606287391803e-15
 103    -0.065045012997816
 104    0.0088032072703858
 105    -1.4483800542232e-15
 106    -0.023720890505156
 107     0.013632360515319
 108    0.0050596284928565
 109    6.501545796676e-17
 110    -0.0015704750305417
 111    0.0027526163356564
 112    -1.6066259456137e-16
 113    -0.00039220669908733
 114    0.00095461036029836
 115    -0.034081805066501
 116    -2.6376223722077e-15
 117     0.057562268678172
 118    -0.026882429538126
 119    -2.4229126863841e-15
 120     0.040910197465014
 121    0.0077674939015154
 122    0.0037982879514285
 123    5.358265918706e-17
 124    0.0010614123308058
 125    0.0035590782293604
 126    1.6703933306635e-16
 127    -0.019767018506039
 128     0.040194270135984
 129      0.10860596907795
 130    8.3560567401906e-17
 131     0.012615862782721
 132    -0.036770555929317
 133    1.3967319947375e-15
 134     0.035534270382679
 135     0.017869280510119
 136    -0.0025632245571164
 137    -3.0548589016864e-16
 138    0.0030195346518539
 139    -0.0024357504150969
 140    3.4222820884366e-18
 141      0.20298563118621
 142      0.12539492284087
 143    -0.050841825633878
 144    -0.0098910060086422
 145     0.059370271307786
 146     0.022309087888212
 147     -0.18396136064203
 148     -0.12869090259293
 149    -0.041963968162877
 150    -0.035244036851407
 151     0.028810750749093
 152     0.020565539959021
 153    0.0076976146212163
 154    0.0010235470283505
 155    -0.030384417927724
 156    -0.019926862119503
 Sym= A
 Ene=   -0.5758081364
 Spin= Alpha
 Occup=    2.00000
   1     0.009441895482231
   2    -0.023605749054459
   3     0.029705981509413
   4    -2.8284701359267e-15
   5      0.11399218105506
   6     0.072578268746523
   7    -3.1841091793575e-15
   8     0.026137567042786
   9     0.027035180157716
  10      0.01061966001895
  11    1.0082044585231e-15
  12    -0.0026822472896148
  13    0.0067219017024526
  14    1.7645129526804e-16
  15    -0.013081218973362
  16     0.025746316821599
  17      0.02990314595697
  18    -7.0206919863464e-15
  19      -0.0096148131793
  20    0.0020243651781124
  21    -2.5020645567253e-15
  22     0.002087860880581
  23    0.0056503091871069
  24    -0.001736564187679
  25    -1.5812073921331e-16
  26    0.0071272103318258
  27    -0.0017099447413975
  28    4.1381875792371e-16
  29    -0.023770354458831
  30     0.044918538563113
  31     0.053156884524527
  32    1.4825822685382e-14
  33     -0.20772944824959
  34      0.10113637972758
  35    -6.9882593534438e-16
  36    -0.075188500033846
  37     0.048459595561929
  38    -0.0075616044074214
  39    1.919891466772e-15
  40    0.0088183390318065
  41    -0.0071050329541953
  42    -5.394275740107e-15
  43    -0.0059057337075491
  44     0.012864586971796
  45     0.044616197467155
  46    3.7725075538097e-14
  47      0.24978112467379
  48     -0.21267462794129
  49    3.2820036870683e-14
  50     0.085977648172695
  51    -0.070121089416555
  52    -0.010992677899773
  53    1.6468741376697e-15
  54     0.016154702259816
  55    -0.007854470472494
  56    7.8643845123627e-16
  57     0.011677408887785
  58    -0.027675710371192
  59    -0.026957290498527
  60    -1.0848990649099e-14
  61     -0.17193503347776
  62      0.26010576862663
  63    -1.2596292103025e-14
  64    -0.072566927652781
  65       0.1219648191128
  66    -0.0055562331237846
  67    -3.1946058744054e-15
  68    0.0070346487527196
  69    -0.0063836807375864
  70    1.0073071355359e-15
  71    -0.0046552506283513
  72     0.011102609824835
  73    -0.032652191707801
  74    -1.5587743842295e-14
  75     -0.18016025178457
  76     -0.01781456474052
  77    -1.1630951160452e-14
  78     -0.10250355651189
  79    0.0061463197262058
  80    0.0012225419857688
  81    7.9306868961954e-16
  82     0.010872923025738
  83    0.0018282564463214
  84    8.3634174572175e-16
  85     0.014180289541577
  86    -0.025723341143164
  87    -0.010115464462926
  88    -2.6774307670319e-15
  89     0.078373293968159
  90    -0.033755880281225
  91    -9.4378995437896e-18
  92     0.081396942916551
  93    -0.021451696108553
  94    -0.0012256267513248
  95    7.9377935356373e-16
  96    0.0077248056874085
  97    -0.00021077244154524
  98    4.5438621645432e-16
  99    -0.0089645051115427
 100      0.02155334920898
 101     0.011377787434223
 102    3.1070316843246e-15
 103     0.048880856280101
 104    -0.00075968333974035
 105    2.958766156755e-16
 106     0.029228892509334
 107     0.017466525205846
 108    0.0033836449314212
 109    -2.3648260775635e-16
 110    -0.0004723962119558
 111    0.0014669996896876
 112    4.4765566496503e-16
 113     0.017444322112997
 114     -0.03417661267766
 115    -0.099408509353075
 116    4.3002483508803e-15
 117    -0.034355545989384
 118     0.094854100902559
 119    1.0444487714624e-15
 120    -0.0026039219887188
 121     0.068480818457752
 122    -0.0037877264846561
 123    -3.20015154017e-16
 124    -0.0036481405351503
 125    -0.0031097667164519
 126    -4.088423310288e-16
 127    -0.013682258748272
 128     0.034374659075151
 129     0.027655474145424
 130    7.9824490641575e-15
 131    -0.079433410070252
 132    -0.079712267836537
 133    7.5848047780315e-15
 134    0.0071584263875649
 135     0.029529971190827
 136    -0.00083955889223917
 137    7.1118797521221e-16
 138    -0.011704015345202
 139    -0.0011002338975656
 140    -9.9526961956954e-17
 141     0.007721212370376
 142    0.00092227162993724
 143     -0.16947205699334
 144    -0.086404608354279
 145      0.04613440017646
 146     0.035771676739526
 147     0.098196654814697
 148     0.083228708688887
 149    -0.052088172093267
 150    -0.023539861994537
 151    -0.0033336292775962
 152    -0.0061947098496849
 153     0.013957982124864
 154    0.00013105603931636
 155     -0.12563180847093
 156     -0.09021416056103
 Sym= A
 Ene=   -0.5458803054
 Spin= Alpha
 Occup=    2.00000
   1    -0.022193306292406
   2     0.040075363326244
   3      0.12356659810472
   4    3.2400036197521e-15
   5      0.19005104722505
   6      0.01865239130038
   7    5.9682851213373e-15
   8     0.062705098021158
   9     0.052886597987078
  10      0.00533089314169
  11    -8.0502844192791e-16
  12    -0.0087058707422451
  13    0.0035940922111886
  14    -8.8475450871909e-17
  15     0.020438614922319
  16    -0.042261860834243
  17    -0.039086260659499
  18    8.2224470782298e-15
  19      0.12206696269818
  20      0.23106742617428
  21    2.484255874289e-15
  22     0.053629767162916
  23      0.10778943910602
  24    -0.00012065582303178
  25    2.0733554722947e-15
  26    -0.0069120846468535
  27     -0.00176906258584
  28    -4.3900470558183e-16
  29    0.0059357979138095
  30    -0.010385859420003
  31    -0.031162004630726
  32    -6.6192416138706e-15
  33     -0.14947584744914
  34     -0.17579504769517
  35    -2.1070721792178e-15
  36    -0.021597592099935
  37    -0.067939423393657
  38    -0.010745613302162
  39    -1.379847292922e-15
  40    -0.015345709203326
  41    -0.0060705513139472
  42    -1.4602971947548e-15
  43    -0.013245136237817
  44      0.02856382633481
  45     0.025122376665562
  46    -6.3514826790021e-15
  47      0.15976020842954
  48      0.21263777807608
  49    -7.3393735279217e-15
  50      0.11265244122933
  51     0.091876637618969
  52    -0.0076459613785627
  53    -6.1264479053933e-16
  54    -0.019939975324534
  55    -0.0013963117665108
  56    -5.9919127388877e-16
  57    -0.019640588870523
  58     0.041246248380529
  59      0.04000851350845
  60    1.6806824075847e-15
  61      0.10466218126034
  62     -0.06021561128819
  63    2.9897854869029e-15
  64     0.043723633831205
  65    -0.061098969005584
  66    0.0023354984062872
  67    7.991593317724e-16
  68    -0.0095954479258767
  69    0.0022025043058699
  70    -7.7568970419339e-16
  71     0.023201440690089
  72    -0.049563883779737
  73    -0.052227820263012
  74    4.2444292052233e-15
  75      -0.1188016357088
  76     0.044724471362727
  77    2.3818386221524e-15
  78    -0.094718785681533
  79    0.0015102190816153
  80     0.011182289967024
  81    -2.1746343979197e-16
  82    -0.0020232425649188
  83    0.0073356145764459
  84    1.9366776130508e-16
  85    -0.0082747311833675
  86     0.016201280898397
  87     0.075517389998819
  88    -4.1608064928037e-16
  89    -0.017698294018277
  90    -0.049700070568865
  91    -1.5758467510956e-16
  92     0.019871199644444
  93     0.016465263218918
  94    -0.0079011252429811
  95    -3.7222614966402e-16
  96    0.0049028623067718
  97    -0.0054531469264832
  98    -1.81373744879e-16
  99    -0.0091864577258074
 100     0.027128367573887
 101    -0.0096225717305022
 102    -3.3786785204948e-15
 103      0.17689812064259
 104    -0.016505419077847
 105    -1.3717247362811e-15
 106      0.11487139320905
 107     0.011422611142495
 108    -0.0059883752704602
 109    3.6750339525967e-16
 110    0.0051985638138804
 111    -0.0034179633547397
 112    -2.6292277639819e-16
 113     0.024839811066327
 114    -0.048756843853801
 115     -0.11741285545945
 116    -7.4569408370318e-16
 117     -0.15085406386607
 118      0.18164258091662
 119    1.1728164268834e-15
 120    -0.065078275191099
 121     0.094639235663455
 122    -0.011014122338988
 123    1.9382671051423e-17
 124    -0.0080516030184579
 125    -0.0097650000647744
 126    2.7624329304248e-16
 127    0.0069987587596137
 128    -0.0067295664010269
 129       -0.090792725882
 130    -3.4988223538915e-15
 131     -0.10847018279789
 132    -0.081160122577131
 133    -5.5528217420641e-15
 134    -0.029462061193391
 135     0.010420840260233
 136    0.0087543015588242
 137    -9.5013712832166e-17
 138     -0.02177630927277
 139    0.0045188764078898
 140    2.868506691028e-16
 141     0.052161819438295
 142     0.039197134360215
 143     0.077947728797793
 144     0.039700467810958
 145     -0.16030308436703
 146     -0.11972873659737
 147    -0.047181851113551
 148    -0.044615240271642
 149     0.025170164622224
 150     0.015541335162468
 151    -0.060890838213378
 152    -0.051977793823847
 153    0.0059438717551139
 154    -0.0063315693384914
 155     0.053496334232404
 156      0.04092607879551
 Sym= A
 Ene=   -0.4972270045
 Spin= Alpha
 Occup=    2.00000
   1    1.1561999236263e-14
   2    -2.0194996882217e-14
   3    3.6618865301885e-14
   4      0.15679453542769
   5    -6.0756721115975e-17
   6    -6.378365255779e-14
   7      0.11606255848011
   8    -6.4333231685283e-15
   9    5.9177972162107e-14
  10    -4.2038566785532e-15
  11    -0.0034234320315901
  12    -2.390265094236e-15
  13    -2.9756114123181e-15
  14     -0.01240339568705
  15    2.1387534380946e-15
  16    -7.1594232357802e-15
  17    2.627230710455e-14
  18      0.11168793591979
  19    3.9255366112036e-14
  20    6.1634683843038e-14
  21     0.065342385679657
  22    9.5002283785082e-15
  23    4.5048049556662e-14
  24    -9.0341433310063e-16
  25    0.0011683523959156
  26    -2.7366607054735e-15
  27    -1.0276029838042e-15
  28    -0.0067123394351298
  29    -5.7162044913809e-16
  30    -9.5674241870656e-17
  31    -5.0480802471896e-15
  32     0.091636171737707
  33    -5.9219096542232e-14
  34    -3.7097264019934e-14
  35     0.058108755868125
  36    -6.5989641279158e-15
  37    -1.0104925088563e-14
  38    -5.8021619979231e-15
  39     0.007165550364516
  40    -3.0574665988849e-15
  41    -1.7908603481055e-15
  42    -0.0041632976988422
  43    -1.3324342871789e-15
  44    5.6552681676222e-15
  45    8.0947979979882e-15
  46      0.14218656422911
  47    6.8389672438058e-14
  48    2.3284741657887e-14
  49     0.095557554016994
  50    4.5734978381253e-14
  51    1.029059247212e-14
  52    -4.0553624962805e-15
  53     0.010335923299937
  54    -3.8045623656524e-15
  55    -2.3913698163944e-15
  56    -7.3224707671257e-05
  57    -2.1034018902606e-15
  58    6.5313744831424e-15
  59    -1.349369715414e-14
  60      0.20596853428049
  61    -3.8580920297689e-14
  62    -1.934289848008e-14
  63      0.13925996214153
  64    -4.1936912952856e-14
  65    -2.7109261376986e-14
  66    -3.8730719967621e-15
  67    0.0036481302531916
  68    -1.8353025891589e-15
  69    -2.5975249647348e-15
  70     0.010356138757754
  71    -1.0005897259028e-14
  72    2.1283004588241e-14
  73    -6.4603247891103e-17
  74      0.26612367753667
  75    2.257052046449e-14
  76    6.0282453385757e-14
  77      0.16874934444028
  78    1.0280151463425e-15
  79    -3.8348080575671e-14
  80    2.6218826369967e-15
  81    0.0032555271840501
  82    1.5900618427857e-15
  83    8.0034340221116e-16
  84    0.0049123124979075
  85    -4.8060559206575e-15
  86    1.1049464677483e-14
  87    7.4708492794112e-14
  88      0.11082173853448
  89    6.9241023059242e-14
  90    -5.3844127179938e-14
  91     0.089877445966786
  92    6.2806760655236e-14
  93    -6.2751114408163e-14
  94    8.0102367012664e-15
  95    -0.025410751273986
  96    -3.3236728384191e-16
  97    5.1963430186122e-15
  98    -0.0013938290794721
  99    2.7481381466995e-15
 100    -9.3112421310421e-15
 101    -2.3826513746579e-14
 102     -0.21243472987358
 103    -8.978651002382e-14
 104    1.7456368450746e-14
 105     -0.16013447869885
 106    -6.5286900244469e-14
 107    2.5180390908183e-14
 108    6.7213989110161e-15
 109    0.0089967807158256
 110    -5.3680982399843e-15
 111    3.9118463547335e-15
 112    -0.020116704116213
 113    -9.1074974459994e-15
 114    1.6331824760489e-14
 115    1.0190764268594e-14
 116     -0.21772707502918
 117    8.7119900300188e-14
 118    -8.5964586398112e-14
 119     -0.14385984229758
 120    5.4945768242733e-14
 121    -3.8339684122492e-14
 122    5.3336196260849e-15
 123    0.0048113208034826
 124    4.2780727831758e-15
 125    4.6691168705625e-15
 126     0.020597784144221
 127    5.0673985007809e-15
 128    -1.0471256297999e-14
 129    -7.6222690571422e-14
 130    -0.092692244163035
 131    2.9160637411072e-14
 132    6.8567000214528e-14
 133    -0.058259677172014
 134    3.3039869216036e-14
 135    1.130376254733e-13
 136    -1.0872455298782e-14
 137     -0.03682026785975
 138    6.4399545380997e-15
 139    -5.9657434612548e-15
 140    -0.006681034181136
 141    2.1015202973811e-14
 142    1.6524825410186e-14
 143    5.0337206628836e-15
 144    7.3139520888411e-15
 145    -3.4532383775515e-14
 146    -2.7729943466939e-14
 147    2.9217277337761e-14
 148    1.3616246552862e-14
 149    -5.6196656634048e-14
 150    -4.8677580559821e-14
 151    4.6515041992689e-14
 152    3.9635558397114e-14
 153    -1.0475347136116e-15
 154    3.8712425959091e-15
 155    2.6075242336469e-15
 156    -8.5911675509667e-16
 Sym= A
 Ene=   -0.4955305079
 Spin= Alpha
 Occup=    2.00000
   1    -0.028445709077758
   2     0.051481255355929
   3    0.0035567997295037
   4    6.0652396323719e-14
   5     0.017005277331507
   6      0.16212380829982
   7    4.3412202718907e-14
   8     0.029934486733051
   9    -0.089592380727009
  10     0.012489044790754
  11    -1.1467552087013e-15
  12    0.0061422172290242
  13    0.0078383928293001
  14    -5.0730529520721e-15
  15    -0.0039819445912624
  16     0.012661002211226
  17    -0.069723462031375
  18    4.2846262892786e-14
  19     -0.10801450008884
  20     -0.15912009440662
  21    2.6461884332688e-14
  22    -0.021801303439737
  23     -0.11144111611795
  24    0.0065488768911244
  25    -8.3744922315489e-16
  26    0.0068116281337773
  27    0.0070435535389467
  28    -2.6361699821606e-15
  29    -0.0022005725959564
  30    0.0026313760919414
  31     0.037266171269798
  32    3.9007642302597e-14
  33      0.15922408305444
  34      0.11270857812903
  35    2.5563746626415e-14
  36     0.023882960336985
  37     0.058673562928545
  38    0.0094771611907433
  39    3.5420937433683e-15
  40    0.0072092065207132
  41    0.0056456128464844
  42    5.9017678208826e-16
  43    0.0071904242710973
  44    -0.013488182680694
  45    -0.063587872281725
  46    5.1179773305637e-14
  47     -0.16596403613797
  48    -0.069020311439338
  49    3.5061689502222e-14
  50     -0.11694092011744
  51    -0.059213672918568
  52     0.010674517619478
  53     3.69051449465e-15
  54     0.011657088578793
  55     0.004749815805775
  56    5.5632824447209e-16
  57    0.0021548563026959
  58    -0.0043074016384838
  59     0.062026711499657
  60    7.8035565243205e-14
  61     0.097065975040909
  62     0.050246508419712
  63    5.2070445555631e-14
  64      0.10223247233738
  65     0.045230760621236
  66     0.010122617196305
  67    1.345044306873e-15
  68    0.0064419998911672
  69    0.0062810224198005
  70    3.6676931136983e-15
  71     0.023537823963366
  72    -0.048054391737861
  73     0.043537909694403
  74    1.0191976602321e-13
  75    -0.072278896489045
  76     -0.15510182554267
  77    6.5089012569221e-14
  78    -0.016636954957428
  79      0.10071069945779
  80    -0.0047781682629264
  81    1.6479984093558e-15
  82    -0.003982708293416
  83    -0.002373121251303
  84    2.2369065703312e-15
  85     0.011945528072695
  86    -0.027535626851979
  87      -0.1674161751675
  88    4.2876416162422e-14
  89     -0.16751330574077
  90       0.1301043476652
  91    3.5460651531084e-14
  92      -0.1390103886149
  93      0.18507025688661
  94    -0.020836253705348
  95    -1.0127072653015e-14
  96     0.001816135179809
  97    -0.012894046321998
  98    -4.2357366059184e-16
  99    -0.0067320634756098
 100     0.023808799698131
 101    -0.00098019910040995
 102    -8.6868546640741e-14
 103      0.22572779574529
 104    -0.042953983643123
 105    -6.6026232191016e-14
 106      0.17073239963916
 107    -0.030797742734052
 108    -0.015618093709873
 109    3.8982716924255e-15
 110      0.01306940472618
 111    -0.0087596853075097
 112    -8.1537054283067e-15
 113     0.024760221237683
 114    -0.046934518693446
 115     -0.08441888054247
 116    -8.6029897242778e-14
 117     -0.21379393383549
 118      0.22321703493296
 119    -5.7096975747779e-14
 120     -0.12029566113718
 121      0.11462132932366
 122    -0.013409683595586
 123    1.9170981042614e-15
 124    -0.010783398838909
 125    -0.011505176679226
 126    8.3906036046877e-15
 127    -0.014528068259541
 128     0.032623173721413
 129      0.16425680517958
 130    -3.6057852910161e-14
 131     -0.08193362224462
 132     -0.17881566008121
 133    -2.1129606574458e-14
 134    -0.075907558338546
 135     -0.17326768040783
 136     0.025624700381834
 137    -1.4424117046457e-14
 138    -0.018734978887407
 139      0.01553706063123
 140    -2.5615801789826e-15
 141    -0.070207858009719
 142     -0.07134291390988
 143    -0.012784959370039
 144    0.0028287735920695
 145     0.094975107480931
 146     0.070855488301572
 147     -0.07264532785875
 148    -0.048260835881871
 149      0.13632208996245
 150      0.11472439592811
 151     -0.11362809923859
 152     -0.09967444457561
 153    0.0043301638642041
 154    -0.010579826252455
 155    -0.005785443504854
 156    -0.0075424812603092
 Sym= A
 Ene=   -0.4440257638
 Spin= Alpha
 Occup=    2.00000
   1    -0.021400143722817
   2      0.04834308233202
   3      -0.1152712787692
   4    -2.4836833677083e-15
   5     -0.30596529445539
   6     0.050636975553611
   7    -3.071396341321e-15
   8     -0.14552057509907
   9    -0.080673704435557
  10    -0.019648422698683
  11    2.5084792216401e-16
  12    0.0043801991331371
  13      -0.0126201318523
  14    -1.4653449079412e-16
  15      0.01751860147083
  16    -0.039092160306829
  17    -0.069652948629747
  18    -4.4137405820052e-15
  19      0.22290838281984
  20    -0.053112707622123
  21    -3.7186681457595e-15
  22       0.1451842548145
  23    -0.0050841678214087
  24    -0.019623234097886
  25    -8.0055992814443e-16
  26    0.00012209038925486
  27    -0.013466392204834
  28    8.3900940341369e-17
  29    -0.0043542487808995
  30    0.0074682058796312
  31     0.042176332451755
  32    -4.4314814853753e-16
  33     -0.11940786013059
  34    -0.053340850316627
  35    -3.3781179995649e-15
  36    -0.052882756224777
  37    -0.012863851849599
  38     -0.01076738689358
  39    1.5808324669974e-16
  40    0.0018007633978469
  41    -0.0069686292934833
  42    -1.9599692558921e-15
  43    -0.0017287715400752
  44    0.0041784820501773
  45     0.010644635022286
  46    1.1739988920533e-14
  47      0.14930250370998
  48    -0.016967889741697
  49    8.9837981860803e-15
  50     0.070258825945905
  51    0.0019201834617187
  52    -0.009173509602636
  53    9.465570960835e-16
  54    -0.0050029974259009
  55    -0.0046451759806272
  56    -5.9331707563241e-16
  57    0.0090986919389219
  58    -0.024608264054948
  59     0.042552617181215
  60    5.1984973678726e-15
  61     -0.14111746821178
  62    -0.033339080888662
  63    3.2439321199396e-15
  64      -0.0704722447121
  65     0.027841014742219
  66    -0.018110382349229
  67    -4.2013667432874e-16
  68    0.0018448156392882
  69    -0.013098075159392
  70    9.2383179387178e-16
  71     0.016468493502917
  72    -0.034474632188577
  73     0.063676417811529
  74    5.0761793713212e-15
  75      0.30955105492767
  76     -0.11403038733305
  77    2.2613344990462e-15
  78      0.24207142025935
  79     0.070841528053207
  80    -0.024791540037328
  81    4.3321876234663e-16
  82    -0.0070404840893901
  83    -0.016914610033035
  84    -5.4284354083148e-16
  85     0.012692603414732
  86    -0.030810101740905
  87     -0.21340591141185
  88    7.3539230662378e-15
  89     -0.18574083087029
  90      0.18084033366884
  91    6.4601947783817e-15
  92     -0.20033235512013
  93      0.17314450066546
  94    -0.010154066865891
  95    -4.6048612572625e-16
  96    -0.016812098349606
  97    -0.0072890080278532
  98    1.6944671692874e-16
  99    0.0049944496447305
 100    -0.010232338842592
 101     0.026610588679308
 102    -2.0334936244675e-15
 103     0.066114717120544
 104    -0.023567497968441
 105    -2.0857626480617e-15
 106     0.058326942882236
 107    -0.070585110036656
 108    -0.014602328958182
 109    -7.1526256912608e-17
 110     0.008027742271923
 111    -0.0090398177383588
 112    -6.8261012453553e-16
 113    -0.013155368546649
 114     0.028910589288522
 115      0.10915488860011
 116    -6.3457939818091e-15
 117     -0.08263834279707
 118    0.0019856826844123
 119    -5.5207752064042e-15
 120     -0.06805519501271
 121    -0.024735843041823
 122    -0.0048104928266179
 123    2.5513897144542e-16
 124    -0.0019074892868348
 125    -0.0026843462050272
 126    4.7883610273836e-16
 127     0.015981557130153
 128    -0.038928849171759
 129     0.021767008804442
 130    -2.6314926801707e-15
 131     0.034880297778757
 132    0.0073052384848818
 133    -8.3924875074688e-16
 134    -0.025380555414037
 135     -0.16486597463317
 136       0.0207973760419
 137    -6.6312478635153e-16
 138     0.013991215077295
 139     0.010914130919708
 140    -4.9838340098256e-16
 141      0.14478363363958
 142      0.12663451261329
 143    -0.041564046434321
 144     -0.03510953266882
 145    -0.046973912106692
 146    -0.042238063813296
 147      0.10963326378277
 148      0.12464983291934
 149      0.14382222315663
 150      0.16082659187329
 151    -0.063035112706735
 152    -0.049897520968432
 153    -0.016674953385682
 154    -0.014507333283043
 155    -0.038546414279564
 156    -0.031803136882156
 Sym= A
 Ene=   -0.4137113528
 Spin= Alpha
 Occup=    2.00000
   1    4.6935430219346e-16
   2    -2.0473047840384e-15
   3    -2.2503928333624e-14
   4     -0.24227425695443
   5    8.0124936171019e-15
   6    1.137657130194e-15
   7     -0.17651617240151
   8    4.9972171816136e-15
   9    -1.8220723022253e-14
  10    3.5999517909732e-16
  11    -0.006177070763227
  12    2.0086774283263e-16
  13    1.0316668561162e-15
  14    -0.010073905820651
  15    -1.5604039972335e-15
  16    6.8264583902731e-15
  17    -2.9657112947839e-15
  18      -0.2150344982227
  19    -1.1414441129616e-14
  20    -3.3741613745856e-15
  21     -0.15880005119361
  22    -7.7996308693287e-15
  23    -7.1112543874107e-15
  24    -1.2735737834136e-15
  25    -0.0038583063723403
  26    6.4647288859182e-16
  27    -1.7309129989161e-15
  28    0.0096449747213914
  29    -8.4571465366763e-16
  30    4.5992617387101e-15
  31    -7.1175159722676e-15
  32     -0.12905088909073
  33    -4.0008281101856e-15
  34    -4.0038227588903e-16
  35    -0.090318906861298
  36    -5.9886201394714e-15
  37    -9.0109594821945e-15
  38    3.110764761451e-15
  39    -0.011015834957552
  40    6.6844386432192e-16
  41    -3.864830305201e-16
  42    -0.00025939293148103
  43    4.3850839290072e-16
  44    -3.0507332424335e-15
  45    3.0035435677281e-16
  46    -0.053562907684973
  47    -7.0690888120512e-16
  48    -5.7242017288029e-15
  49    -0.046482501698344
  50    3.7858650993269e-15
  51    -2.3385349149344e-15
  52    -5.0209047839225e-16
  53    -0.00017414441800107
  54    -6.1508989869479e-16
  55    -2.4190097780031e-16
  56    -0.0067538201966915
  57    3.1642454545544e-16
  58    2.1825385820085e-16
  59    -3.5527899563587e-15
  60     0.038938956520546
  61    -1.7228392431169e-15
  62    4.5969929378265e-15
  63     0.032334728843398
  64    -6.8983510517172e-15
  65    -4.0390478394505e-15
  66    4.8383334348847e-16
  67    0.0074339618803551
  68    3.4744091165018e-16
  69    4.8763617560559e-16
  70    0.00035194903321908
  71    -2.0904347086144e-16
  72    7.4330550542539e-16
  73    1.5947749880975e-15
  74      0.15349741456096
  75    -1.033893684132e-14
  76     2.34716569939e-15
  77     0.085350021592248
  78    -7.8272282340191e-15
  79    -6.5738972248054e-15
  80    4.3239949444282e-16
  81     0.017821540307617
  82    4.4093394285433e-16
  83    3.2980727539353e-16
  84    -0.011615379839555
  85    -1.6343643931898e-16
  86    9.7266384635834e-16
  87    -4.8920453569024e-15
  88       0.3263911698936
  89    3.891898865765e-15
  90    -3.424110659446e-15
  91      0.28887593221491
  92    -5.8990415860485e-15
  93    -7.3786589157496e-15
  94    3.3464129643025e-16
  95    -0.0010025786359299
  96    8.8680590568734e-16
  97    1.4403513434557e-17
  98    0.0049517482416564
  99    -4.5124156138218e-16
 100    1.4044277719072e-15
 101    1.322090959798e-14
 102      0.14012552677647
 103    1.7730261353104e-16
 104    -1.2843062923846e-15
 105      0.12415424912628
 106    9.5320630108749e-16
 107    -7.8749309169006e-15
 108    4.2528315075705e-16
 109    -0.012605262687119
 110    -5.9235931466186e-17
 111    2.7518869874911e-18
 112    -0.019639049915072
 113    9.4954900958063e-16
 114    -1.9381637953756e-15
 115    8.9666240714513e-15
 116     -0.13028460267764
 117    2.8554503165045e-16
 118    3.6236302642512e-15
 119     -0.10845065344687
 120    -3.9672537929608e-15
 121    -2.2893651208554e-15
 122    -1.1052163756837e-16
 123     0.011564102863107
 124    5.4322979645152e-17
 125    5.5354902665884e-17
 126     0.004740345309412
 127    -6.9513674113565e-16
 128    -2.3312857319084e-16
 129    2.0421286269771e-14
 130     -0.21347181963546
 131    -1.8399408487821e-15
 132    -1.4537601199587e-15
 133      -0.1750191865275
 134    -7.3420806897142e-15
 135    -2.9372983413569e-14
 136    -3.435943057888e-16
 137     0.010159903203839
 138    -9.9683259533088e-16
 139    4.8641250393022e-16
 140    -0.019958870588636
 141    7.1090831967376e-16
 142    8.8311416587096e-15
 143    -1.6098464836941e-15
 144    -1.2053965277825e-14
 145    2.2852893101549e-16
 146    -1.5446007960979e-15
 147    -5.8371446235534e-16
 148    -5.2470084736864e-15
 149    -3.1559116178635e-15
 150    -7.6790169904347e-15
 151    2.3337335696364e-16
 152    2.7876636209003e-15
 153    1.0868556156425e-15
 154    2.1651908185464e-15
 155    -1.1182945286225e-15
 156    5.8930039919912e-15
 Sym= A
 Ene=   -0.3614187207
 Spin= Alpha
 Occup=    2.00000
   1    1.3071269198495e-15
   2    -2.7038286361946e-15
   3    -1.7549931900961e-14
   4     -0.22266379085437
   5    6.2797519056217e-16
   6    7.2723438401668e-15
   7     -0.17372769742058
   8    4.8360391439148e-15
   9    -6.5937906900942e-15
  10    -3.1801554487442e-16
  11    -0.012970494577511
  12    2.0928524867613e-16
  13    5.5873452432404e-16
  14    0.0080752149647521
  15    1.0407388027882e-15
  16    -8.1209998500172e-16
  17    -4.1747834351438e-14
  18    0.0014930862323203
  19    1.7925488874991e-15
  20    -2.8374354563971e-15
  21     0.024274929359797
  22    1.2089988776089e-14
  23    3.0706757752204e-15
  24    -1.6879893712635e-15
  25    -0.012985883244587
  26    1.1956941971038e-15
  27    -1.0302384326734e-15
  28    -0.0015814703523344
  29    1.4733909685676e-14
  30    -3.4761861938949e-14
  31    -1.0371932627278e-13
  32      0.13956522493925
  33    -2.0045428533456e-14
  34    5.074023929284e-14
  35     0.097746319926898
  36    -1.5003225052663e-14
  37    9.3261164086591e-14
  38    -2.462419310876e-15
  39    0.0041158790636477
  40    -3.9827794697966e-15
  41    -5.6267760472683e-16
  42    -0.011841036729258
  43    -7.6126840575222e-16
  44    7.1365502722185e-15
  45    -3.3215606686042e-18
  46      0.28671431698393
  47    1.1252389485709e-14
  48    3.3780866754529e-15
  49      0.22860015563564
  50    1.5964321905852e-14
  51    -1.2611650914251e-15
  52    1.4057059118664e-15
  53     0.013755031809476
  54    5.1346106331747e-15
  55    -1.3432572650472e-15
  56    -0.00012661277309704
  57    1.7466755300015e-16
  58    2.1750047481189e-15
  59    -1.0119035465382e-14
  60      0.26016921295675
  61    -3.3113589806861e-15
  62    -4.8860734045907e-16
  63      0.23471341915304
  64    -1.1495014120941e-14
  65    -4.5747233609169e-15
  66    -5.7361596011899e-16
  67    -0.012541690609743
  68    3.0204757624086e-16
  69    -9.2143589225911e-16
  70    0.0088773305670156
  71    3.236467590332e-16
  72    1.5603397096528e-16
  73    1.4937205940116e-15
  74    -0.072981000392461
  75    -5.970970515808e-16
  76    2.7079949847958e-15
  77    -0.045174242295497
  78    5.7259816643654e-16
  79    -1.3265255055698e-14
  80    -1.7400829431118e-16
  81    -0.020648952767667
  82    2.7944903619229e-16
  83    6.2130418566329e-16
  84    -0.018395624935806
  85    -5.9381622264851e-16
  86    1.4551973990673e-16
  87    1.3282867978719e-14
  88    -0.080762913703423
  89    -1.5347341879461e-15
  90    8.1143846196159e-16
  91    -0.081119427838329
  92    -3.5324597092153e-15
  93    -4.1119867742199e-15
  94    8.7416367362029e-16
  95     0.016383983261537
  96    3.8560643749644e-16
  97    4.8114577839455e-16
  98    -0.0058534273144352
  99    -6.4108126818039e-16
 100    2.3710542562088e-15
 101    8.9645175323034e-15
 102      0.18825630164355
 103    3.8861963299637e-16
 104    -1.4403076435072e-15
 105      0.18796799181308
 106    -1.956063951079e-15
 107    -8.1811457738431e-16
 108    -7.6921838115388e-16
 109    -0.0028422727043864
 110    5.1068604571263e-16
 111    -1.6809624217971e-16
 112     0.013211007837461
 113    -1.3259660137223e-16
 114    9.1859229080974e-16
 115    1.9109366670686e-14
 116      0.15923836535098
 117    -3.6453645701119e-15
 118    2.325744536949e-15
 119      0.13812848274702
 120    -9.1117200266209e-15
 121    -7.7627481502107e-15
 122    1.3059215461211e-16
 123    0.0031019350872392
 124    -8.4193559835918e-17
 125    -2.7922687058013e-16
 126    -0.014566285415105
 127    2.271831986603e-16
 128    -3.1632137104815e-15
 129    -2.7998509225938e-15
 130    -0.084334344957473
 131    5.272720469559e-15
 132    -2.7424718504003e-15
 133    -0.085937042609857
 134    -6.8878784727415e-15
 135    -2.6751007976656e-14
 136    3.7110396982188e-16
 137     0.035662436840964
 138    -4.3847034150459e-16
 139    6.6431701404834e-16
 140    0.0087364657612681
 141    5.0321027449514e-15
 142    1.1466890435442e-14
 143    2.8526976463325e-14
 144    9.7811328349458e-14
 145    9.6413462366443e-15
 146    2.5895931603888e-14
 147    3.0674818066688e-15
 148    7.2609334525351e-16
 149    -1.5046621767011e-15
 150    -8.37176811193e-15
 151    -2.4253846435633e-15
 152    -7.3625210994968e-15
 153    -1.8327587013852e-16
 154    1.7967001021766e-15
 155    5.7540836745221e-14
 156    7.9396706783517e-14
 Sym= A
 Ene=   -0.2765407271
 Spin= Alpha
 Occup=    2.00000
   1    -9.1530383436768e-16
   2    3.8196491657211e-16
   3    7.5955836706071e-14
   4     -0.04784237519388
   5    -2.223121837802e-16
   6    -3.3008369252858e-15
   7    -0.013488137441542
   8    -1.13020697078e-14
   9    6.2538032487071e-14
  10    -1.2505934199731e-15
  11    -0.023387324022651
  12    -4.0349082752233e-16
  13    -8.7569108149408e-16
  14     0.010210112141968
  15    2.1907111347802e-15
  16    -1.0885703844477e-14
  17    1.9183117505973e-14
  18      0.28931728659173
  19    1.5215493615702e-14
  20    5.734187816434e-15
  21      0.26923831560931
  22    9.0085697240284e-15
  23    1.5715989013418e-14
  24    2.3008085635652e-15
  25    -0.0097706000855792
  26    -6.4677404990626e-16
  27    2.6492001457634e-15
  28    -0.008306533459755
  29    -1.2089750811997e-15
  30    -2.7354957541227e-15
  31    2.7589053206365e-14
  32      0.22267042160621
  33    8.3227256843598e-15
  34    -2.056211803732e-15
  35      0.19732118922139
  36    1.3893774425368e-14
  37    6.8436087433314e-15
  38    -4.6097572486671e-15
  39     0.015686961175797
  40    -5.4233775235961e-16
  41    1.3372012721828e-15
  42    0.0037787942751292
  43    -1.0436967661597e-15
  44    3.6611447605444e-15
  45    6.1491901605367e-15
  46    -0.0099395502719661
  47    -8.6390245361092e-16
  48    6.9099196483513e-15
  49    -0.0040940319379063
  50    -9.3511979920981e-15
  51    4.718205811624e-15
  52    4.0848645682936e-16
  53    -0.008646619594065
  54    6.0572152194166e-16
  55    8.0398826763179e-16
  56     0.016381849523888
  57    9.8999744259893e-17
  58    -3.5773210073501e-15
  59    1.6033040042092e-15
  60     -0.22277834628283
  61    2.4989127802093e-15
  62    -9.7239242033025e-16
  63     -0.20648132939761
  64    1.5979183049992e-14
  65    1.2165036033622e-14
  66    -6.0886969253145e-16
  67    -0.0044276139879656
  68    -1.0002779146648e-15
  69    -2.3068366693883e-16
  70    -0.0041063704747333
  71    -4.5340778653324e-16
  72    -2.0531937868594e-16
  73    -2.1989739879587e-14
  74     -0.11273928663774
  75    7.4022857931512e-15
  76    2.3159921527226e-15
  77     -0.13251419875928
  78    4.9866926835607e-15
  79    4.8727295186305e-15
  80    -2.6382597612126e-16
  81      0.01698023870499
  82    -1.9532039724397e-16
  83    -1.0089437462075e-16
  84    0.00094686125626521
  85    -2.3748106426989e-16
  86    6.5120236960579e-16
  87    1.299713268743e-14
  88      0.19635423123359
  89    1.6955200338422e-15
  90    9.5082931384014e-18
  91      0.22159106728871
  92    1.1214677869368e-14
  93    -3.9713787662334e-15
  94    1.7950013262674e-16
  95     0.018587529320495
  96    -4.7017477510942e-16
  97    -7.8044778570941e-17
  98    0.0045494124967776
  99    -3.2300992386838e-16
 100    8.9191189116707e-16
 101    -1.575933566096e-14
 102      0.18923881650082
 103    -1.3489102987535e-15
 104    -1.5072881807181e-15
 105      0.21453626959127
 106    -8.3767001242137e-15
 107    9.7564495567652e-15
 108    -2.3275837806475e-17
 109    -0.011355966879609
 110    3.4556571873474e-16
 111    -1.8699671885703e-16
 112    -0.017443422343503
 113    -2.5609099458222e-16
 114    -1.9706536056919e-17
 115    -2.564329089465e-14
 116     -0.14049858382143
 117    2.9091112239408e-16
 118    -2.4896983603819e-16
 119     -0.14365531230699
 120    7.9944767381611e-15
 121    1.3236415650685e-14
 122    -1.2955139306214e-16
 123     0.010658951417924
 124    -6.8234963538828e-17
 125    -3.1142491450374e-17
 126    0.0014287090937642
 127    1.7886577905272e-15
 128    -3.6021510887389e-15
 129    -6.100758485655e-14
 130     -0.17460676708415
 131    6.9660421263465e-16
 132    5.1242093807758e-15
 133     -0.19361230422891
 134    1.7110905745381e-14
 135    7.474218499504e-14
 136    -3.0759656243071e-16
 137    0.0029592869197407
 138    -2.5924431740746e-16
 139     4.10964456746e-16
 140    -0.015129649238305
 141    -4.0296034800134e-15
 142    -2.1219583493129e-14
 143    -2.3216765805465e-15
 144    1.0282670879153e-14
 145    -3.9553159999671e-16
 146    1.4931449951738e-16
 147    3.7228839956206e-16
 148    1.1811713132004e-14
 149    -5.2960767104687e-16
 150    7.7604774471341e-15
 151    -3.9052945507092e-16
 152    -5.0397910088352e-15
 153    -5.6710701432413e-16
 154    -4.4918234342085e-15
 155    -5.0344850361165e-15
 156    -2.1907477254965e-14
 Sym= A
 Ene=   -0.1088618706
 Spin= Alpha
 Occup=    2.00000
   1     0.016580649075672
   2    -0.032133786252416
   3     -0.20046038929149
   4    6.7477704989876e-14
   5    -0.042070493198491
   6     0.039648467858857
   7    5.6392480937845e-14
   8    0.00089417896095991
   9     -0.17139617658213
  10    0.0083039757087128
  11    3.7940955331106e-14
  12    -0.00099110304147366
  13    0.0026380205354323
  14    -5.5968342260147e-15
  15    -0.010043972831969
  16     0.030948566360295
  17     -0.14134011202549
  18    -3.0506309123082e-13
  19    -0.051697066153035
  20    -0.029812500473384
  21    -4.1828511815793e-13
  22    -0.040004246680261
  23    -0.084688700847538
  24    -0.018708456358071
  25    -6.1590243973651e-16
  26    0.0087341620183748
  27    -0.011025627561772
  28    -3.268356455367e-16
  29     0.091510066838208
  30     -0.18193586208288
  31      -0.6764936278516
  32    1.3459786513331e-13
  33     -0.20914755505559
  34      0.33234092199084
  35    1.6698146034282e-13
  36     -0.21830180378242
  37      0.41084705743694
  38    -0.0048863518443077
  39    -1.6191250669623e-14
  40    -0.0063935436077482
  41    -0.0070088381626737
  42    -2.9633733810478e-14
  43    -0.018918662063933
  44     0.044568287167295
  45     0.084617688486058
  46    2.9379127571131e-13
  47      0.10469688952189
  48    -0.0034123232291671
  49    3.9040665895169e-13
  50     0.078272974836664
  51     0.050615861937675
  52    0.0018212191100762
  53    -1.629574622168e-14
  54     0.024635114882624
  55    8.1582893017613e-05
  56    1.7643649782732e-14
  57     0.019243094594934
  58     -0.04230942074185
  59     -0.10195822222948
  60    -2.3771000445162e-13
  61    -0.032419079668626
  62       0.0695003665816
  63    -3.3668767764447e-13
  64    0.0045171813846164
  65      0.11886115416324
  66    -0.0054388088909038
  67    -2.2254554897702e-14
  68    -0.0036543307335286
  69    -0.0052362504841334
  70    -1.1031757157714e-15
  71     0.014052109123947
  72    -0.025571643392008
  73      -0.1033514239656
  74    -1.6128703770388e-13
  75    -0.016642334766247
  76    0.0013326078340152
  77    -2.1147286825431e-13
  78     0.002808486451322
  79     0.060720124182796
  80    -0.0012523525732011
  81    2.5147595702963e-14
  82    0.0010534852959695
  83    -0.0021409137227765
  84    1.6395717455119e-14
  85    0.0056813987881737
  86    -0.0077027882760158
  87     -0.11820483659239
  88    1.4065726033353e-13
  89    0.0049680151861187
  90    -0.0073062202814523
  91    1.8069209819294e-13
  92    0.0033370969825919
  93    -0.0078738434958787
  94    -0.0046155768241867
  95    9.9699743286496e-16
  96    -0.0023675210806921
  97    -0.004191163386268
  98    2.0388157364219e-14
  99    0.0067101543791686
 100    -0.014113428018146
 101    -0.013410552068416
 102    -1.4024532159914e-13
 103    0.0079130285064606
 104      0.01706544013123
 105    -2.2421975554564e-13
 106     0.011439542345132
 107    -0.0049945868862253
 108    0.0020715264718258
 109    -1.7162875307034e-14
 110    -0.0030595543813955
 111    0.00058565032011579
 112    -1.493236256241e-14
 113    0.00085615286081085
 114    -0.0023588008265004
 115      0.06096556417988
 116    -2.2073831304257e-13
 117    0.0093822884935908
 118    -0.0069551356634551
 119    -3.2401448164561e-13
 120     -0.01334817461162
 121    -0.035216916202117
 122    8.9414981771573e-05
 123    -1.5649897450129e-14
 124    0.00029940251581107
 125    0.00070460324448916
 126    1.0572664991989e-14
 127    -0.014873704330622
 128     0.036366147462481
 129      0.21807678544883
 130    2.9277555106642e-13
 131    -0.028195539018658
 132    -0.022310063637228
 133    3.6841881122246e-13
 134    -0.062845123569812
 135     -0.16388092040358
 136    -0.0012539860860841
 137    -2.3981276686789e-14
 138    0.0045988136319432
 139    -0.00054767059789945
 140    -2.1998621427721e-14
 141     0.035761347388162
 142      0.17987163374235
 143     0.054844323302645
 144      0.22377261008409
 145     0.041975790626038
 146      0.15239046282042
 147     0.028117434228998
 148      0.10791465545439
 149     0.017049837251305
 150     0.080521115494205
 151     0.013026835178093
 152     0.044657549861882
 153    -0.00010733130423072
 154     0.013394788194427
 155      0.28811079187206
 156      0.70348906227261
 Sym= A
 Ene=   0.02870538987
 Spin= Alpha
 Occup=    0.00000
   1    1.6675302106669e-14
   2    -3.4707121957157e-14
   3    -6.8304856251309e-14
   4    -0.049120385510678
   5    -4.1467726632895e-14
   6    4.4987877176097e-14
   7    -0.011943724171473
   8    1.2701176633009e-14
   9    -8.9231030243272e-14
  10    8.246785752688e-15
  11    -0.029744770954565
  12    4.7530677018743e-16
  13    2.463728846996e-15
  14    -0.0020337248810878
  15    -1.088365143971e-14
  16    2.8515108547814e-14
  17    -9.1744648925451e-14
  18       0.1981457835129
  19    -5.3176650306564e-14
  20    -4.5356181981537e-14
  21      0.24719601023997
  22    -6.2750755728583e-14
  23    -1.3608703268594e-13
  24    -1.7581536265191e-14
  25    0.00049592955375888
  26    9.8730785328922e-15
  27    -9.3089914424823e-15
  28    -0.00048574899468035
  29    9.4729755576615e-14
  30    -1.818605833077e-13
  31    -6.8210708095325e-13
  32    -0.032340310771133
  33    -2.345892547876e-13
  34    3.6768779469565e-13
  35    -0.020182263817802
  36    -2.796402145832e-13
  37    3.9793050086899e-13
  38    -9.5996515457154e-15
  39    0.0096857373639766
  40    -7.9112578687613e-16
  41    -7.4501329651749e-15
  42     0.015867214933891
  43    -2.1980656636545e-14
  44    5.5018669264983e-14
  45    5.056134224086e-14
  46     -0.25226287834808
  47    1.229831020342e-13
  48    -1.0636657080071e-14
  49     -0.33464927210399
  50    6.6754863136223e-14
  51    3.7998790960602e-14
  52    -5.000126238393e-16
  53    0.0039901707621739
  54    2.383229181376e-14
  55    1.6568319938839e-15
  56    -0.00077189631165991
  57    2.2712565621564e-14
  58    -4.9293829610989e-14
  59    -9.1953293474012e-14
  60     0.062819174219222
  61    -3.7232105559233e-14
  62    7.6745550992362e-14
  63     0.091452335780172
  64    3.3465528493796e-14
  65    1.3591726079291e-13
  66    -5.3489834703904e-15
  67     0.024540992370699
  68    -3.6744808679329e-15
  69    -5.6976772710745e-15
  70    0.00023179772553646
  71    1.197088614477e-14
  72    -2.0722790191836e-14
  73    -7.7469206729511e-14
  74      0.23094862893548
  75    -1.4592500563355e-14
  76    1.3974675228657e-15
  77      0.30905891240173
  78    7.6203863704654e-15
  79    1.0862772318649e-13
  80    -1.1519747808194e-15
  81    -0.0078891659908265
  82    3.779867700341e-16
  83    -2.3705509646426e-15
  84    -0.010319072284296
  85    5.6201256743962e-15
  86    -9.2021720880912e-15
  87    -1.2655147442859e-13
  88    -0.073377453936483
  89    5.6363870518406e-15
  90    -3.9989483567993e-15
  91     -0.10096106702831
  92    3.6627359482898e-14
  93    2.3527187897379e-14
  94    -3.5743975742554e-15
  95    -0.016650398758612
  96    -1.8186869098653e-15
  97    -3.0493208973031e-15
  98    -0.021903345645552
  99    5.2612006589906e-15
 100    -1.0993040335582e-14
 101    -4.6348023787695e-14
 102    0.0073115984181123
 103    5.0721710448118e-15
 104    1.2960167002287e-14
 105      0.04922500611958
 106    8.8515718566702e-15
 107    1.2051559387258e-14
 108    1.5505342137693e-15
 109     0.021880393676551
 110    -1.9747174241024e-15
 111    5.9861327700225e-16
 112     0.014568262262982
 113    1.2818506636931e-15
 114    -2.9304969756941e-15
 115    5.116234243031e-15
 116      0.27080288022787
 117    6.2514508134598e-15
 118    -2.7741428024417e-15
 119      0.45970750373787
 120    3.8607539537282e-16
 121    -9.1923749186459e-15
 122    5.1393919360753e-16
 123     0.017118223471082
 124    -1.3852090036326e-16
 125    4.1330356583366e-16
 126    -0.0039461464653742
 127    -1.3591907645471e-14
 128    3.2864482659436e-14
 129    1.2803892855682e-13
 130     -0.28966837273554
 131    -1.7319398821993e-14
 132    -2.4221862562598e-14
 133     -0.40252783664986
 134    -2.9726336109487e-14
 135    -4.5453184885191e-14
 136    -1.928069928148e-15
 137     0.015197897362446
 138    3.4507166326083e-15
 139    8.0248762150355e-16
 140     0.023448948628121
 141    3.2005527563843e-14
 142    1.9344633637364e-13
 143    2.5214334377523e-14
 144    6.4889625804119e-14
 145    3.9156942247336e-14
 146    1.5004602679929e-13
 147    3.2470996966717e-14
 148    1.4208453419298e-13
 149    1.2408311166809e-14
 150    8.8536134739173e-14
 151    9.5054189979881e-15
 152    3.2726172573355e-14
 153    2.5715821999398e-16
 154    7.6760924928266e-15
 155    2.9629962262149e-13
 156    8.8761526870714e-13
 Sym= A
 Ene=   0.07253313375
 Spin= Alpha
 Occup=    0.00000
   1    8.1633934381076e-15
   2    -1.453871198765e-14
   3    -9.3651982716568e-14
   4      0.18387378503289
   5    -2.1836561386069e-14
   6    1.2577325403827e-14
   7      0.27427707130182
   8    9.1439565972315e-15
   9    -9.8101816086831e-14
  10    5.3695076959822e-15
  11    -0.0080050299424359
  12    -1.8199692621267e-15
  13    1.3467151719062e-15
  14     0.008776274748443
  15    -7.050651320345e-15
  16    1.9005710250412e-14
  17    -3.1197965720422e-14
  18     0.084070388101817
  19    -2.8581303516802e-14
  20    -1.3865559837715e-14
  21      0.10846836284998
  22    -3.1526629762488e-14
  23    -7.0069430977705e-14
  24    -6.9390570155261e-15
  25     0.020203082308908
  26    3.3028744406774e-15
  27    -3.5563775758332e-15
  28    0.00063982539131513
  29    3.6083850963846e-14
  30    -6.2526273761283e-14
  31    -2.6157254333176e-13
  32     -0.19701686902314
  33    -8.447292101518e-14
  34    1.2835353974048e-13
  35     -0.26905728575015
  36    -1.1986053278301e-13
  37    1.2430213881085e-13
  38    -1.5213922441179e-15
  39    0.0023206564299335
  40    4.9948362848454e-16
  41    -4.333007784041e-15
  42    0.0068775818247182
  43    -7.9879758097855e-15
  44    2.0096238672881e-14
  45    9.7829729512796e-15
  46    -0.076383835188346
  47    4.4082752232375e-14
  48    -3.5546318460042e-15
  49        -0.10542563904
  50    1.9717696577531e-14
  51    1.3768948919884e-14
  52    1.8523544542076e-16
  53     0.011357457609984
  54    8.2110262218858e-15
  55    6.6743432278546e-16
  56    -0.017375156074715
  57    7.8291875295541e-15
  58    -1.5436292281405e-14
  59    -1.8707453239478e-14
  60      0.19900226490566
  61    -7.7427006770391e-15
  62    2.8110228771636e-14
  63      0.30765038271246
  64    2.7608844474151e-14
  65    6.3495210320215e-14
  66    -1.2731307214034e-15
  67    -0.00092631920158556
  68    -1.4179344298872e-15
  69    -2.5066741114253e-15
  70    -0.0021063399145642
  71    9.5582755351459e-15
  72    -1.7338147855959e-14
  73    -3.8278464224583e-14
  74     -0.11290333574691
  75    -1.1099144022873e-14
  76    -9.5833875509277e-15
  77     -0.15040183422551
  78    -7.6733317511925e-16
  79    7.0681672217083e-14
  80    -1.8612232922061e-16
  81    -0.028825318653462
  82    1.8385865690186e-16
  83    -1.4006867356652e-15
  84    0.0033295588836372
  85    7.7022258046649e-15
  86    -1.0235840406046e-14
  87    -1.4572329643877e-13
  88     -0.19079932170822
  89    7.9136581350075e-15
  90    -9.5966897404187e-15
  91     -0.27495620297082
  92    3.9334035120365e-14
  93    2.4346996026404e-14
  94    -5.9480311170609e-15
  95     0.030130222385736
  96    -1.9751020760303e-15
  97    -4.7992410905734e-15
  98    0.0059085369009007
  99    9.1292014958677e-15
 100    -1.5192818006201e-14
 101    -8.9026042370993e-14
 102      0.33203393514939
 103    1.3118686368564e-14
 104    8.0012552518626e-15
 105      0.57400153469269
 106    3.9608483596664e-14
 107    -2.0215872749862e-14
 108    3.7058660734988e-15
 109    0.0024204601971844
 110    -4.8018957980803e-15
 111    5.6165417516384e-16
 112    -0.0074372375071049
 113    3.2201514230333e-15
 114    -6.4186543212225e-15
 115    6.2742240314067e-15
 116     -0.23659510301885
 117    1.1127251820432e-14
 118    -9.9203332948303e-15
 119     -0.39830374080696
 120    -8.8741214606868e-15
 121    -4.2161630720508e-14
 122    5.5298636604195e-18
 123    0.0066945947939909
 124    1.7955909155192e-15
 125    1.3699012464009e-16
 126    -0.010598730133846
 127    -1.2279039012803e-14
 128    3.5663676695898e-14
 129    1.0140047729196e-13
 130    -0.056221123269705
 131    -3.667206410194e-14
 132    -1.2194943877428e-15
 133     -0.11435513646818
 134    -5.4356004019763e-14
 135    -8.3914683752496e-14
 136    -1.9289964193864e-15
 137    -0.010809583790005
 138    2.2366657235393e-15
 139    -3.0343677349461e-16
 140    -0.0073916317817714
 141    1.1779848748932e-14
 142    8.1500748598573e-14
 143    6.5634888027618e-15
 144    -1.9904597336426e-14
 145    1.4123725214915e-14
 146    5.6131323137154e-14
 147    9.0383175548791e-15
 148    5.8973233484186e-14
 149    2.0709004182573e-14
 150    1.264268516666e-13
 151    1.7849111060096e-14
 152    1.138341366827e-13
 153    3.2131286087312e-15
 154    4.6913891314676e-14
 155    1.0688182604128e-13
 156    3.6050686835744e-13
 Sym= A
 Ene=   0.08953244261
 Spin= Alpha
 Occup=    0.00000
   1     0.011479332283739
   2    -0.011756923384873
   3     -0.52114600429928
   4    -3.8387951041787e-14
   5    -0.038056864594147
   6    -0.054535051999181
   7    -5.94273895203e-14
   8    -0.041675215210337
   9     -0.48500528676764
  10    0.0067252544557554
  11    -1.668169718636e-16
  12    -0.015119105426668
  13    0.0031813002306344
  14    8.1672081099217e-16
  15     -0.01299632122604
  16     0.028503266254729
  17    -0.066142654842412
  18    1.2618002418294e-14
  19    -0.011609342926593
  20     0.054069808576022
  21    2.5851700417828e-14
  22      0.08760307451228
  23    0.0039248437365075
  24    -0.0015282223297733
  25    -3.1156033796835e-15
  26    -0.0029137049648383
  27    0.00064060467424672
  28    5.5689587255531e-16
  29    -0.0016100957988442
  30    0.00080605748591135
  31      0.10310582664265
  32    1.3509965227107e-14
  33     0.021639628074121
  34    -0.060322573878668
  35    1.6304695829192e-14
  36    -0.017421809123213
  37    -0.036526234887796
  38     0.002538340908609
  39    1.0016196259797e-15
  40    -0.00088344569504418
  41    0.0013883855622097
  42    1.3638080355973e-15
  43    0.0012778260642454
  44    -0.00087866136402796
  45    -0.049486157639255
  46    -1.3043753327223e-15
  47    -0.020327066404917
  48    0.0059889191604729
  49    -6.4931830147502e-15
  50    -0.077562995596634
  51    -0.044148276765664
  52     0.001697958460339
  53    6.1291673206401e-16
  54    -0.0025901694371401
  55    0.0015258269510472
  56    4.5376426951852e-18
  57    -0.0049513482229232
  58    0.0042633489230059
  59      0.19815194350016
  60    3.4737289217582e-15
  61     0.042960232913133
  62     0.013732927559159
  63    8.3935425841056e-15
  64       0.1999190156687
  65      0.12874887653899
  66    0.0026148291648437
  67    -3.2859607824458e-16
  68    -0.0015822364110934
  69    0.00021181256633068
  70    -1.2041217896178e-16
  71     0.042750139543618
  72    -0.074272897700582
  73     -0.12878668914809
  74    1.3091407789516e-15
  75     -0.01775859476739
  76    -0.083361143162399
  77    -3.3317294943856e-15
  78    -0.028929231245087
  79      0.32511028900261
  80    0.0029579821311054
  81    1.9079426800303e-15
  82    -0.00048140132211272
  83    -0.006275939596018
  84    -2.1691853238445e-15
  85     0.053125645415545
  86    -0.064447953030207
  87     -0.97459978357766
  88    2.5502124165059e-14
  89     0.059225916094728
  90     -0.08660597773987
  91    4.3203510849311e-14
  92      0.24718835129325
  93      0.16824355786103
  94    -0.043806582298423
  95    -2.0193215385156e-15
  96    -0.0088505125618157
  97    -0.033245690695168
  98    -5.9097246628698e-16
  99      0.06983309070317
 100     -0.11470199867846
 101     -0.60379553597499
 102    -3.6670397324354e-14
 103      0.11052040882636
 104    -0.0022320062426696
 105    -7.1590332444255e-14
 106      0.43829056762753
 107     -0.40331048743861
 108     0.032123331593613
 109    -1.4352923374493e-15
 110    -0.043204567163748
 111    0.0057028728355504
 112    9.6134609951414e-16
 113     0.033708548504018
 114    -0.049608314356992
 115     -0.12884459096117
 116    3.1436767959048e-14
 117     0.080190805286528
 118    -0.086313534120246
 119    4.9739094591598e-14
 120    -0.063228428255752
 121     -0.37627377975795
 122    0.0014888086372512
 123    -1.0914388565127e-15
 124     0.020560761925305
 125    -0.0013096731158077
 126    1.1022784027214e-15
 127    -0.061445328541394
 128      0.20179265263105
 129      0.23869824609202
 130    8.3824624528215e-15
 131      -0.2684789015167
 132       0.1279211710492
 133    2.2061520864074e-14
 134     -0.29896339487765
 135     -0.62777328692977
 136    -0.0094123781682588
 137    2.8897295919101e-15
 138    0.0038452828743011
 139    -0.0035829143681496
 140    1.5375850307407e-15
 141     0.001361059102534
 142    -0.066639012014697
 143    0.0070489208565499
 144     0.034069227382109
 145    -0.0013706807930901
 146     -0.03864032376959
 147    -0.021756884572687
 148     0.091062517305647
 149      0.14952024708998
 150      0.89928195953253
 151      0.14419928511598
 152       1.1331771186676
 153     0.043734820355852
 154      0.51642959062317
 155    -0.025665270996246
 156     -0.11035509092262
 Sym= A
 Ene=     0.170185743
 Spin= Alpha
 Occup=    0.00000
   1    -0.0069074944680892
   2    0.0066777703753895
   3       -1.080537605549
   4    1.8792345622261e-14
   5    0.0097960181506834
   6    -0.0021668684769833
   7    3.4914353809178e-14
   8      0.25130519285317
   9      -0.8148456004174
  10    -0.016028040431471
  11    1.9987116019249e-16
  12     0.020503345476889
  13    -0.0021923933530664
  14    -1.6130011567229e-15
  15     0.014824701873184
  16    -0.019818827359511
  17     -0.42691315767523
  18    -1.6335321942362e-14
  19     0.021475105649225
  20    -0.050644214028794
  21    -3.2214837033096e-14
  22      0.15331064565056
  23     -0.17159757192732
  24    0.0007975271816811
  25    8.2305227886476e-16
  26    0.00035433696503279
  27    0.00011419246833815
  28    -8.8908494775225e-16
  29    -0.00084421413892672
  30    0.0057307533303807
  31     0.015193456871847
  32    3.3131283879761e-15
  33    -0.012020126869471
  34     0.027108375173154
  35    7.2294854113494e-15
  36    -0.026768378287974
  37     0.043351218151197
  38    -0.0016748505464437
  39    -6.6263914034269e-16
  40    0.00097114561895715
  41    -0.001218666116905
  42    -1.5684344772985e-15
  43    -3.2358449908969e-05
  44    0.0080858535207693
  45    -0.072530988070108
  46    9.7861293786882e-15
  47     0.012393009014255
  48    -0.0044664125324228
  49    2.0538428928449e-14
  50     0.045113416543813
  51    -0.013480723997386
  52    -0.0023392135237259
  53    -1.3817498229055e-15
  54     0.001201948777055
  55    -0.00084300336890345
  56    1.2850183764392e-15
  57     0.011351143002473
  58    -0.0092416057597887
  59     -0.20600471345079
  60    -1.7023355952935e-14
  61     -0.03944373058858
  62    -0.033099955761168
  63    -3.3535667536057e-14
  64     -0.13263745280678
  65     -0.22529718612102
  66    -0.0032749911998314
  67    3.1658212756587e-16
  68    0.0015234329881706
  69    -0.00091727987844369
  70    7.4722206562695e-16
  71    -0.032815326708168
  72     0.062955855385826
  73       0.6357798209889
  74    9.6392814482096e-15
  75     0.022339229941184
  76     0.044100491232207
  77    1.9974799066333e-14
  78    -0.031343972062349
  79    -0.079048777659304
  80    -0.0039949108793891
  81    1.8036169839925e-16
  82    -0.011997034717988
  83    0.0061128875051501
  84    1.813748572041e-15
  85    -0.0080704893510253
  86    0.00079962243889085
  87     -0.13461393515404
  88    -1.0253143868671e-14
  89     -0.11561139712846
  90     0.012211901882139
  91    -2.1925405137913e-14
  92     -0.50972009843456
  93      0.19336694886291
  94     0.024108679402276
  95    -4.7725451471724e-16
  96     0.017621672605576
  97     0.016797568852374
  98    -8.804846592831e-17
  99     0.009325767726234
 100     0.011425721998446
 101    -0.096530217731026
 102    1.0033083282191e-14
 103    -0.072429272806522
 104     -0.13649497188522
 105    2.6792307576186e-14
 106      0.08135097933111
 107     -0.47172239070853
 108    -0.004713234917709
 109    1.6057685048372e-15
 110    -0.014141770621833
 111    -0.0014399567497199
 112    -1.7383406535047e-17
 113     0.081852557640677
 114     -0.13739915195092
 115     0.060660350548899
 116    -2.9851258862236e-15
 117     -0.18335055925446
 118    -0.070246711976844
 119    -1.7739780256191e-15
 120       -1.197126501724
 121      -1.2989405408676
 122     0.025107210735405
 123    9.9644450385051e-16
 124     0.030212734997612
 125    -0.0057455947698512
 126    -2.0191071898625e-16
 127    -0.022611489634286
 128     0.072555755139063
 129     -0.19457391249587
 130    -1.1719288967529e-14
 131      0.23922133777685
 132      0.14294302484454
 133    -2.351923695004e-14
 134      -0.4997721676555
 135       -1.764096986093
 136     0.016387214656151
 137    -2.0063710413224e-15
 138     -0.02228717543607
 139     0.014952966908983
 140    -3.5703925128319e-16
 141    0.0092121937218379
 142      -0.0032147939034
 143    -0.0057431813779005
 144    -0.039205798337621
 145    -0.0037750121353804
 146    -0.0014231334812042
 147     0.022025139123052
 148    -0.040994810945892
 149    -0.058143764146381
 150     -0.68577002047409
 151    -0.0067507017442583
 152      0.45955169520944
 153      0.13125070280614
 154       2.0478149980545
 155    0.0089521612015949
 156     0.064038562931843
 Sym= A
 Ene=    0.2116623887
 Spin= Alpha
 Occup=    0.00000
   1    1.0678138576501e-15
   2    -5.542440030251e-15
   3    3.7518398831782e-14
   4      -0.2624069429261
   5    -1.1202385581567e-14
   6    5.7275523218168e-15
   7     -0.57598376461072
   8    2.4584005002324e-15
   9    2.7152858616814e-14
  10    2.1145618831756e-15
  11    0.0051085557550486
  12    9.8067134858829e-16
  13    1.0055889244616e-15
  14     0.022401801471494
  15    -1.9828662983826e-15
  16    6.2525277767151e-16
  17    1.9417379699826e-14
  18      0.18490131385807
  19    -1.3412945169984e-14
  20    -5.9301707890258e-15
  21      0.39686968591151
  22    -5.6639527813536e-14
  23    -4.9195823977766e-14
  24    -3.3168334467764e-15
  25    -0.014251000622161
  26    1.1110069346735e-15
  27    -7.896829899734e-16
  28     0.010802284964915
  29    1.5432552540879e-14
  30    -2.9825522335911e-14
  31    -8.2353239130941e-14
  32     0.021907044843848
  33    -4.9791270617274e-14
  34    6.1366815801714e-14
  35     0.014454229058207
  36    -6.8835266359063e-14
  37    1.5031063142795e-14
  38    -3.1195652682477e-15
  39    0.0097157825787396
  40    2.7471942920891e-15
  41    -4.1655773922714e-16
  42      0.01913733710319
  43    -5.9603833904658e-15
  44    1.4326595486262e-14
  45    2.1121481917936e-14
  46     -0.20052232801761
  47    1.6636754515316e-14
  48    -1.1533822823538e-14
  49       -0.425545154028
  50    -1.0949641154464e-14
  51    -7.083987878412e-15
  52    -1.5568505116091e-15
  53     0.014035451389801
  54    2.1293527126865e-15
  55    2.0841555352733e-16
  56    -0.0084341263258656
  57    5.8124866918689e-15
  58     -1.0571706096e-14
  59    -6.3556824356013e-14
  60      0.25013650338839
  61    -1.4544098439372e-14
  62    7.9190944691904e-15
  63      0.52492567018715
  64    -2.21544719674e-14
  65    5.7244723061818e-16
  66    8.9167296671328e-16
  67    0.0046130506358171
  68    -2.7377502068476e-17
  69    -8.084700807289e-16
  70    -0.014899428689562
  71    -1.5541306494648e-15
  72    2.3116064351709e-15
  73    -1.8754782835734e-14
  74     -0.17151186366242
  75    -1.1014739817927e-14
  76    3.6527623898861e-15
  77     -0.31160477443422
  78    -2.8860989951688e-14
  79    -4.8661640715446e-14
  80    -2.1323157048815e-15
  81    -0.0045262232809994
  82    -1.3767082233547e-15
  83    -4.9842605721098e-17
  84    -0.029102992934422
  85    -5.8425070243029e-16
  86    -2.2475772036059e-15
  87    6.1877689188317e-14
  88      0.12258499583431
  89    -1.1277420540089e-14
  90    6.794685741576e-15
  91      0.25913900029667
  92    -4.6285289311657e-14
  93    -2.7145072313136e-14
  94    2.6931398033074e-15
  95     0.011595690387317
  96    1.6276043054477e-15
  97    1.315741940133e-15
  98    0.0098273516055352
  99    -3.6531616750502e-15
 100    6.8677416071688e-15
 101    1.5435118945996e-14
 102     -0.12167865510159
 103    -1.1238959561485e-14
 104    6.4038988681291e-16
 105     -0.39741033910022
 106    -5.203407076747e-14
 107    6.1840722956422e-14
 108    -1.4921400521185e-15
 109    -0.031445286238519
 110    4.4518562497587e-16
 111    2.3497545015565e-16
 112    -0.00037950594564489
 113    3.9922314714142e-15
 114    -7.7373093048255e-15
 115    -1.7864217956915e-14
 116    -0.045400703310993
 117    -9.9201445680008e-15
 118    -6.2886743589318e-15
 119     -0.20698434809239
 120    -6.1633640971023e-14
 121    -7.6274370043683e-14
 122    1.3327690495076e-15
 123    -0.025978169241266
 124    7.2642118574213e-16
 125    -7.3624643341571e-17
 126    0.00026917798335082
 127    -2.0804826891255e-15
 128    5.1728783044166e-15
 129    -9.279305285055e-15
 130      0.28969501680421
 131    1.7008419772169e-14
 132    -3.9142091062906e-15
 133      0.60307313027495
 134    -5.2424192859211e-14
 135    1.0440817065818e-14
 136    9.5224326754103e-16
 137     0.026238280323434
 138    -1.7645886807597e-16
 139    3.4642087497698e-16
 140    -0.0093212307831002
 141    3.7263987279508e-15
 142    7.5014451718049e-14
 143    -1.0030069243329e-14
 144    -1.3825420456103e-13
 145    1.8878251775668e-15
 146    -2.3322665923864e-14
 147    5.045667173927e-15
 148    5.6314486567358e-15
 149    -6.6156085048379e-15
 150    -8.134403386154e-14
 151    -4.6217742556053e-15
 152    -9.5925054479599e-14
 153    5.4320634510664e-15
 154    1.209684248179e-13
 155    4.7497276470149e-14
 156    2.616100010598e-13
 Sym= A
 Ene=    0.2455856511
 Spin= Alpha
 Occup=    0.00000
   1    3.0360351223358e-15
   2    -1.4295954985593e-14
   3    2.0277105789931e-13
   4     0.059700468629641
   5    1.1136256675785e-14
   6    2.3906559163033e-15
   7      0.24746160912732
   8    1.2913475702117e-14
   9    7.6570167393467e-14
  10    -5.7935253727535e-16
  11    -0.016437486977774
  12    2.3011253526914e-15
  13    -2.0233532142943e-15
  14     0.021260825754034
  15    1.7712914134749e-15
  16    -2.1229564650113e-15
  17    -6.3436135312643e-16
  18      0.16519836137664
  19    1.2442920468279e-14
  20    -5.3775293749922e-15
  21      0.31177560449313
  22    3.1490923354754e-14
  23    -1.6405114886309e-14
  24    1.1664093848305e-15
  25     0.025748299232189
  26    4.9499154431888e-16
  27    3.9058503072635e-17
  28    0.0077041154388203
  29    5.4698572019012e-15
  30    -6.6496287361453e-16
  31    -4.9949134046946e-14
  32     -0.28875032820057
  33    1.6690745265105e-14
  34    1.2119580374497e-14
  35     -0.61092418029275
  36    -4.9762369358592e-16
  37    1.7692295174702e-14
  38    -4.2988637518807e-17
  39    0.0045630777422246
  40    -3.4408627373115e-15
  41    -5.8111751011256e-15
  42    -0.0032171658235863
  43    3.312952031156e-15
  44    -1.7968701035441e-15
  45    -9.5303890882038e-14
  46      0.19726839366083
  47    2.4580423146343e-14
  48    3.6646824207276e-14
  49      0.39584990617293
  50    3.3697138183975e-14
  51    1.1770871927069e-13
  52    3.4360342974715e-15
  53    0.00072154613535529
  54    4.6994300594835e-15
  55    2.031038822682e-15
  56    -0.024713774051967
  57    1.2149351295656e-14
  58    -1.5198410492664e-14
  59    -2.5919408194349e-13
  60    -0.0050272521061385
  61    4.0412463685576e-14
  62    1.2939756611826e-16
  63     0.057073461409086
  64    1.6079534757222e-13
  65    1.4172834272789e-14
  66    -3.3916793844052e-15
  67     -0.02801329680624
  68    -1.5812644955932e-15
  69    -2.0453165009457e-15
  70    -0.0037486844554047
  71    -8.3450673148427e-16
  72    2.1063977137842e-15
  73    -8.5731990717529e-14
  74     -0.21254244269806
  75    1.3877784624248e-14
  76    6.9661584770006e-15
  77     -0.54890831220364
  78    -5.4024673636092e-14
  79    -3.272757252645e-14
  80    2.0092138123889e-15
  81     0.014997931856476
  82    -2.1500559796972e-15
  83    2.0241283644436e-15
  84    -0.0021160747847531
  85    6.4293997793644e-16
  86    -4.80424514431e-15
  87    1.0133954008303e-13
  88      0.25172674331563
  89    1.1818005840127e-14
  90    -1.2966611844487e-14
  91      0.64429834395447
  92    1.8932676863078e-13
  93    -4.8854555644377e-14
  94    1.4389516555094e-15
  95    0.0089118419840083
  96    2.2163576552153e-16
  97    4.2224224321928e-16
  98    -0.011604527314095
  99    -9.1985633760031e-15
 100    1.452254180128e-14
 101    5.1775950455774e-14
 102     -0.16247421279557
 103    -9.6270827944996e-15
 104    1.1859319942948e-14
 105      -0.3470474588157
 106    -7.1720625697315e-14
 107    1.6524083554237e-13
 108    -1.8288075668647e-16
 109    -0.0024223988103991
 110    1.7339729381376e-16
 111    1.5591576559581e-15
 112    -0.015996581786806
 113    6.9894251342958e-15
 114    -1.3137374122432e-14
 115    -1.3780135407566e-13
 116       0.1214734860458
 117    -2.5590583494601e-15
 118    -4.578088392662e-15
 119      0.41953780115752
 120    -8.5242678689797e-15
 121    -5.1207907792114e-14
 122    1.2028799635719e-17
 123     0.010640057758944
 124    -3.7156763179358e-16
 125    -5.821426327235e-16
 126     0.018021794251657
 127    1.8964577177797e-15
 128    -2.3473339471479e-15
 129    -1.4694523850067e-13
 130     -0.16485425402804
 131    1.4474809666039e-14
 132    2.0293731405792e-15
 133     -0.33993144395626
 134    5.8255787840477e-14
 135    1.706149692717e-13
 136    -1.426544218633e-15
 137     -0.00855430231034
 138    -2.5658948935623e-15
 139    6.6041002658906e-16
 140    0.0099150929287972
 141    -3.0120943431005e-15
 142    -3.6754921821379e-14
 143    7.3165518661663e-15
 144    7.4604811673589e-15
 145    1.0228365195694e-14
 146    2.1712599505062e-13
 147    6.4782318789245e-15
 148    3.1292858334536e-13
 149    -2.320929352223e-15
 150    1.4458171617948e-13
 151    -3.3185200767249e-15
 152    -2.1079527311187e-13
 153    2.3974848144578e-15
 154    1.1579198668385e-13
 155    1.1573366238037e-14
 156    3.1178778903717e-14
 Sym= A
 Ene=     0.258539784
 Spin= Alpha
 Occup=    0.00000
   1    -0.0095028111585373
   2    -0.028520744366793
   3       1.9369101708665
   4    -6.8463922347792e-15
   5    -0.022482708885613
   6    -0.0081667318978671
   7    -3.2368286276127e-14
   8     -0.13166503125519
   9       1.0209594335284
  10    0.0056074175167594
  11    2.2643352221252e-15
  12    0.0056779514026425
  13    -0.0032322118507697
  14    -3.687049833855e-15
  15     0.011930361888082
  16    -0.024054459991053
  17      0.15062571529996
  18    -2.6813093335046e-14
  19    0.0036931757803633
  20    0.0050788254859825
  21    -4.9621469439244e-14
  22     -0.20999624898892
  23    0.0091197688215898
  24    -0.0028224189878754
  25    -3.9212589006728e-15
  26    -0.00036493033486289
  27    -0.0018654057046551
  28    -1.1810814797419e-15
  29    -0.0058421731157655
  30    -0.00020968164299165
  31      0.12470716717238
  32    3.8843229711219e-14
  33     0.026159412108763
  34    -0.017282930730095
  35    8.469696759711e-14
  36    0.0049915217555288
  37     -0.13517691811252
  38    -0.0013345326450095
  39    -6.1689104039686e-16
  40    -0.0060775957382564
  41    -0.0016740945430165
  42    4.8610319620692e-16
  43    -0.0097360331891559
  44     0.018610791459271
  45     0.097742712132273
  46    -2.2841918750501e-14
  47    -0.024488887822398
  48     0.067610634031348
  49    -4.4225784984885e-14
  50     -0.21115086094263
  51      0.18111235394545
  52    0.00057991444408192
  53    -4.8121973485177e-16
  54    0.00065827300752517
  55    0.00058190081799061
  56    3.4469713674933e-15
  57      0.05023133184611
  58     -0.07458356870952
  59      -1.0881510131331
  60    -2.6814668121527e-15
  61      0.08608293179662
  62    -0.046845572498779
  63    -1.8414719223034e-14
  64        0.436479503622
  65        0.072005105492
  66    0.0059283514291011
  67    3.8650298190034e-15
  68    -0.0042813544691801
  69    0.0030904236433441
  70    1.084384309888e-15
  71    -0.0060668110044152
  72      0.02901048975011
  73     -0.96283027784568
  74    3.5768409740463e-14
  75     -0.01308379588537
  76     0.019934720951118
  77    9.0980737606919e-14
  78     -0.52483992711308
  79     -0.54879165512377
  80    -0.014429872886276
  81    -2.1477444194279e-15
  82    -0.014732718139417
  83    -0.0018094586645842
  84    1.1134595471903e-15
  85     0.054767402409406
  86     -0.12012636270005
  87      0.37339490233792
  88    -3.9073891188778e-14
  89     0.060842684498678
  90    -0.064981285149717
  91    -1.0283746186199e-13
  92       1.0710608326979
  93     -0.75773349988775
  94     0.011405115915016
  95    -1.6973546680845e-15
  96    0.0097395599143957
  97    -0.0042713458115498
  98    1.7314496390568e-15
  99    -0.089336237146387
 100      0.14934793295057
 101      0.86617509821154
 102    2.4953718363912e-14
 103    -0.053186972797674
 104      0.10282662128466
 105    5.7460535169007e-14
 106     -0.73003673168173
 107       1.3999312682639
 108    0.0038360938181014
 109    8.4483854254861e-16
 110    -0.010213118663501
 111     0.011457989740894
 112    2.4501994434614e-15
 113      0.05662419429569
 114     -0.09375547967533
 115      -1.2424976226625
 116    -1.6541931757371e-14
 117     0.040018143118982
 118    -0.075810854418743
 119    -5.9095526038301e-14
 120      0.21857091066444
 121      -0.4550338643728
 122    -0.0096408225503142
 123    -1.208356304429e-15
 124      0.00143008328726
 125    -0.0063680878441278
 126    -2.8196299714394e-15
 127    0.0015244584870242
 128     0.021784517969643
 129     -0.98601481230959
 130    2.0680521118437e-14
 131    -0.018613043156826
 132      0.01262464503291
 133    4.3662176917463e-14
 134     0.075537964990743
 135       1.7647803567255
 136    -0.002343802370523
 137    8.7199505961601e-16
 138    -0.016171454249907
 139    0.0044625449651247
 140    -1.3137885188659e-15
 141    0.0017825820989511
 142      0.18034252893178
 143    0.0083156538379547
 144     -0.10505811557062
 145    -0.0021574107715453
 146     0.065414889789536
 147    -0.024109590313142
 148      0.87500206024386
 149     0.019431522026478
 150       1.1443529695118
 151    0.0032955872565425
 152      -1.9046579522533
 153     0.012096676167714
 154      0.88235351434854
 155    -0.0089525287332172
 156    -0.025798590506143
 Sym= A
 Ene=    0.2710712067
 Spin= Alpha
 Occup=    0.00000
   1     0.029809007033319
   2    -0.068552621351792
   3     -0.28287984399348
   4    -2.4442733305732e-14
   5      0.11665029226632
   6    0.0047067414597195
   7    -7.9089049351337e-14
   8    -0.013412893534109
   9      0.16192215939473
  10    -0.0050094024861607
  11    2.4879091702399e-15
  12     0.014494610900696
  13    -0.0066876979001065
  14    -2.6547174056356e-15
  15     0.021449470703898
  16    -0.055213167169049
  17    -0.017083580125695
  18    -9.4087520185013e-15
  19     0.013034224366896
  20     0.010572742874584
  21    -9.2139450869313e-15
  22    -0.039004318297911
  23      0.22158990256078
  24    0.0052424175839526
  25    -3.9982185558748e-15
  26    0.0061902165474925
  27    -0.0019046507367102
  28    2.1233373518777e-16
  29    -0.016302875243986
  30     0.023068570767405
  31      0.23502118046958
  32    3.1054458084983e-14
  33     0.031195937008537
  34    0.0010331115099121
  35    6.3334605199677e-14
  36     0.014947596609581
  37    -0.038145254942067
  38    0.0028652127272543
  39    -2.9116216981965e-16
  40    -0.010328036510131
  41    -0.00023142054225206
  42    2.1377368601514e-15
  43      0.06549960902321
  44     -0.07771083732925
  45      -1.2535321427653
  46    -2.8630148045544e-14
  47     0.084723982039974
  48      0.12586956815679
  49    -6.2639467847797e-14
  50      0.23851066137279
  51      0.41483246376821
  52    0.0076734707129306
  53    -3.3281477630957e-16
  54    0.0096815847739543
  55    0.0046719704599402
  56    1.0780726788345e-15
  57     0.035452610646741
  58    -0.018554960477655
  59     -0.76190524156896
  60    6.8373414220749e-15
  61      0.21197595028607
  62     0.012512575774122
  63    9.4436328728353e-16
  64      0.86430156658459
  65     -0.29028441738571
  66    -0.019155914259455
  67    4.4045964569325e-15
  68    0.0045760580705319
  69    -0.0086822593825593
  70    -2.8188558487637e-16
  71    -0.0095228346908658
  72    -0.0019862963667085
  73      0.61548929723361
  74    3.2886970735106e-14
  75     0.078492916518154
  76    -0.024769067356565
  77    8.5901970146054e-14
  78    -0.088000325280466
  79      0.27610088631591
  80     0.032016373543633
  81    -2.0572547428255e-15
  82    -0.0040093033728045
  83     0.015260029244831
  84    -1.118460855452e-15
  85    -0.045902444255848
  86     0.074814352407734
  87      0.52647253933201
  88    -3.4949533923708e-14
  89     0.044756416115502
  90    -0.018603779971587
  91    -9.6175242836024e-14
  92      0.62613189289768
  93      0.63769233897309
  94    -0.0091922471725361
  95    -1.4231768442318e-15
  96    -0.0033509145076405
  97    0.0024187090669579
  98    2.0384697360006e-15
  99     0.031999355432946
 100    -0.058609264378997
 101     -0.72395778751344
 102    2.0958982664968e-14
 103      0.02179581429453
 104    -0.028038725214993
 105    3.5084873036681e-14
 106      0.50162694415582
 107     -0.24348663220641
 108    0.00028394598874776
 109    -1.1218995820362e-15
 110     0.010647357003372
 111    -0.00075753359185235
 112    3.0020049414325e-15
 113    -0.0096390518220454
 114    0.0051439100009729
 115    -0.043349577452484
 116    -1.8459613777687e-14
 117    -0.035186180054104
 118     0.058827632707311
 119    -7.7048700892422e-14
 120    -0.053417779232987
 121      0.30384122432649
 122    0.0083357298765133
 123    -3.0449805524381e-15
 124    -0.0068194261304214
 125    0.0027723911157291
 126    -3.0971625990848e-15
 127     0.014815363064953
 128    -0.018628989246708
 129     -0.66911157799143
 130    3.762836047094e-14
 131     0.068311905847694
 132    -0.0058424753855314
 133    8.8005328720326e-14
 134      0.68727122194811
 135     -0.11475403947823
 136    -0.011442012547779
 137    3.3978092185012e-15
 138    -0.0040896792819913
 139    -0.0014927363865416
 140    -2.2413796902817e-15
 141    -0.0055734104244426
 142     0.099082337182732
 143      0.01176461297715
 144      0.12797317130936
 145     0.036866300814576
 146       1.2682994267003
 147     0.041552327680352
 148       1.4492704918089
 149    -0.023160758994481
 150      0.12583265597923
 151    -0.019719155332654
 152       0.6566836243045
 153    -0.0093393840282375
 154     -0.29374235075806
 155    -0.025447209044609
 156     -0.20377179267245
 Sym= A
 Ene=    0.3000172094
 Spin= Alpha
 Occup=    0.00000
   1     0.025564466197196
   2    -0.016222857832402
   3     -0.87885458718969
   4    1.4277556040526e-15
   5    -0.048602553455473
   6    -0.021597574931512
   7    4.3053545641443e-15
   8      0.34975988891514
   9      0.47999000652345
  10     0.017008803781388
  11    -3.4298316933941e-16
  12     -0.01248767085564
  13    0.0062734673497393
  14    3.4154740093716e-16
  15    -0.010902167891686
  16    0.0024017157421214
  17      0.52709799347621
  18    4.8217351554805e-15
  19    -0.062849506894677
  20     0.055505066599751
  21    7.0448480818889e-15
  22     -0.59037661295112
  23     0.063372565772223
  24     -0.00722903466974
  25    9.8217403287705e-17
  26    0.00085913274180997
  27    -0.0073659879838879
  28    -1.7570326614499e-16
  29    0.0020697050042799
  30     0.046963113139277
  31     -0.84030573678934
  32    5.7041692446166e-16
  33    -0.032470466092377
  34    -0.021926498390298
  35    3.6354080346396e-15
  36      0.14174818681085
  37     -0.33971730341432
  38     0.008126266817771
  39    -2.1736009374535e-16
  40    -0.00089281137211409
  41     0.011891941828709
  42    -4.4405438795238e-17
  43     0.068946219227352
  44     -0.13724418787959
  45     -0.55590649557971
  46    -4.7849425460936e-15
  47     0.066446823921865
  48     0.035979070894969
  49    -1.4340835300243e-14
  50      0.84176352981669
  51      0.68248526804686
  52    0.0092372917297778
  53    2.3311615832921e-16
  54    -0.0040706462937457
  55    -0.0039197558364247
  56    -1.1376444847198e-15
  57    -0.069304326167384
  58      0.16634982704344
  59     0.063684081093571
  60    1.6633789538399e-15
  61    -0.037356598636031
  62     0.038892492100717
  63    7.4941408125222e-15
  64      -1.1748935436896
  65     -0.48604051445546
  66    -0.022310872323342
  67    2.2441447077472e-16
  68    -0.001083132696168
  69    -0.0010219123340515
  70    -4.5653697096233e-16
  71     0.051752039233671
  72     -0.10546221013787
  73     -0.14690007022095
  74    2.8811133289754e-18
  75     0.036015128761917
  76    -0.029322021885492
  77    -1.8710633347416e-15
  78      0.21221649626719
  79      -1.4618766788027
  80     0.018051450534279
  81    -8.8376938290475e-17
  82     0.013974148264998
  83    -0.0062620401364066
  84    -4.0764418741553e-16
  85    -0.039348347614398
  86     0.059951295857195
  87       1.6821199227903
  88    -2.6949629027312e-16
  89    -0.050358819972284
  90    -0.033731200817956
  91    4.0894911558795e-15
  92     -0.82595232254667
  93     -0.28346990247552
  94    -0.023139152064206
  95    1.3917810361504e-16
  96    -0.013217205427918
  97    -0.014341283368188
  98    -5.7653576623744e-16
  99    -0.005752927554016
 100    -0.024712352172611
 101      0.39099251685469
 102    4.7076953114467e-16
 103     0.096124845949885
 104      0.19130815871391
 105    4.3287737194756e-15
 106      0.42009060301894
 107       1.0572928534713
 108    0.0049674253301258
 109    4.3036785663841e-16
 110    -0.0035967636456925
 111    0.0040643838477356
 112    -2.4441838822106e-16
 113     0.025588568505843
 114    -0.062955376377786
 115     -0.20437880398692
 116    3.472063326621e-15
 117     0.032920746368819
 118     -0.11323645746548
 119    1.2162451332499e-14
 120      0.14537949436194
 121      -1.2060537175268
 122    -0.0078969846419106
 123    8.1895081493396e-16
 124    -0.0099400542428396
 125    0.0013044312719493
 126    1.874851426561e-16
 127    -0.019573683365581
 128     0.011106415399672
 129      0.14371436932252
 130    -7.2279265506225e-15
 131     -0.14171591781057
 132      -0.0483644585398
 133    -1.7009762929648e-14
 134       -1.200937625093
 135     -0.33024488469834
 136    -0.017096921585471
 137    -1.8203816047101e-16
 138     0.017065941340125
 139    -0.011732775607351
 140    8.3193755801749e-16
 141     0.022941139441081
 142       0.4047691712437
 143    0.0025652211181749
 144      0.23496176691205
 145     0.031983231514559
 146         1.30781869368
 147     0.018263132788492
 148      -1.2353915973901
 149     0.099950317032972
 150     -0.73334654005114
 151     0.024245986860158
 152     -0.80170024339272
 153     -0.06497687454724
 154      0.91402921587975
 155    -0.024510619883449
 156     -0.24156977712045
 Sym= A
 Ene=    0.3196476392
 Spin= Alpha
 Occup=    0.00000
   1    -0.028700842002574
   2     0.041241720942399
   3     -0.16795725932504
   4    1.2055176056895e-14
   5    -0.0027042766243977
   6    -0.040097542157593
   7    3.9160556945835e-14
   8      0.14668429733286
   9      0.92456777657965
  10    -0.0061994774229989
  11    -4.8584016158671e-16
  12     0.020813981591677
  13    0.0089878817783002
  14    4.4677876833237e-16
  15     0.091927840151721
  16      -0.1799316592037
  17     -0.76663411041648
  18    -4.9091656393193e-15
  19     -0.17223965909758
  20     -0.05710228498623
  21    -4.8454366449609e-15
  22      -1.4678855878347
  23      0.33920714037926
  24    0.0094875773976844
  25    7.7470024189896e-16
  26    -0.0042706739612906
  27    -0.0038536531405301
  28    -1.9032983920661e-15
  29    -0.035975956914992
  30     0.059986399465575
  31      0.28877642846788
  32    -6.3779916279128e-16
  33     0.010575085043117
  34     0.035726495039229
  35    -3.4538415472699e-15
  36       0.5790279019972
  37     -0.45491225774343
  38    -0.00014155015122105
  39    1.0291576309654e-15
  40    -0.0070405577505849
  41    0.0033383997035573
  42    1.9002854953222e-16
  43    -0.0094249281374093
  44    -0.026172204897127
  45      0.71334878888367
  46    4.0227818975966e-15
  47    -0.065973986686576
  48    -0.015494334978054
  49    5.7307956395839e-15
  50    -0.037805647353972
  51      0.24763380624054
  52    -0.0072542089642426
  53    9.5951029621359e-16
  54    0.0076979147223716
  55    -0.010585558724034
  56    4.0260751611475e-17
  57     0.029471559479249
  58    -0.038021374296208
  59     -0.80195146810713
  60    7.364210114939e-16
  61    -0.066459230338288
  62    -0.036450776974485
  63    1.3526244317161e-14
  64     -0.43100095337289
  65    -0.086912293992253
  66     0.003536448547024
  67    -1.3362346047202e-15
  68    0.0034230199371599
  69    0.0034689501176071
  70    7.1378497801646e-17
  71    -0.021635957671709
  72     -0.02892420132729
  73       0.5436471784299
  74    -1.6690812631308e-14
  75    -0.053770236020162
  76    -0.014997957772012
  77    -4.1888383091861e-14
  78    0.0072743574411496
  79      -0.5443685643293
  80     -0.01066566034243
  81    7.8537096654125e-16
  82    -0.020492618208553
  83    -0.0078399845275127
  84    6.6696363048088e-16
  85    0.0064856038660038
  86    -0.035990217447727
  87      0.39663016006472
  88    1.1825425509978e-14
  89    -0.048774024825833
  90     0.033257816052514
  91    4.0281122369397e-14
  92     -0.24502723608303
  93      -0.1437185690619
  94    -0.00041143136708327
  95    1.1034967237225e-15
  96      0.02538013647286
  97    -0.0025056592565135
  98    -9.8048454547533e-16
  99    -0.033789362927272
 100     0.014026623237469
 101       1.2770861911749
 102    -7.7519636427913e-15
 103      0.11729384654745
 104     -0.11970763847483
 105    -1.1240056284433e-14
 106       1.1455298189352
 107     -0.83704072610449
 108    0.0093161365970094
 109    4.5834545837305e-16
 110    -0.0046024542558714
 111    -0.0031306381558862
 112    -1.6399465339447e-15
 113     0.026453096872154
 114    -0.057627040428822
 115      -0.7836570988665
 116    4.7613908867871e-15
 117      0.03724333227266
 118      0.06252292932956
 119    2.7283837256348e-14
 120      0.78227260843363
 121    -0.090936798137568
 122    -0.0087062784793374
 123    1.0100543008146e-15
 124    -0.0060132529425096
 125    -0.0015452099871339
 126    1.2545764070905e-15
 127     0.032271036387111
 128    -0.052402965376079
 129      -1.5095986882095
 130    -1.3687868436998e-14
 131    -0.065866113405436
 132    0.0061421956896412
 133    -3.4891652751407e-14
 134      0.32886261345897
 135     -0.20154496224425
 136    -0.00062550982859515
 137    -1.610504827143e-15
 138    -0.025849533348065
 139    0.0064012193307108
 140    9.8504377082714e-16
 141    0.00046036770499448
 142       2.0360603132698
 143    -0.014137267239162
 144     -0.89568438049413
 145    0.0049209668622074
 146     -0.15096173350576
 147    -0.007952162224186
 148     -0.15279861230794
 149    0.0043131729382251
 150     -0.23840576004125
 151    -0.011500285196949
 152      0.85819892122563
 153    -0.040336518825984
 154     -0.12612306012537
 155     -0.02213272735693
 156      0.27843502682456
 Sym= A
 Ene=    0.3413359432
 Spin= Alpha
 Occup=    0.00000
   1    -0.035018823611656
   2     0.054843341986659
   3       2.6007855922129
   4    5.9027358281913e-15
   5    -0.078344423065182
   6    -0.0028849203816723
   7    1.8634752867212e-14
   8     -0.52807295953443
   9        2.036156218756
  10     0.015156160585717
  11    -9.2977123742611e-18
  12    -0.0043142771023578
  13     0.010963808998864
  14    2.155884982901e-16
  15     0.014569863599742
  16    -0.063621321772673
  17        1.015496602843
  18    -1.519673001272e-15
  19    -0.056207898047564
  20     0.046319410404819
  21    -5.7956020170926e-15
  22     -0.94914545757169
  23     -0.08208311045064
  24    -0.0056175319952335
  25    1.4479010373261e-16
  26    -0.0023492147523389
  27    -0.012472236897847
  28    -8.6823702782916e-16
  29    -0.0074322553031865
  30     0.060029317094315
  31     -0.70005260214611
  32    3.8937708736317e-15
  33    -0.048277866151008
  34    -0.033119165876597
  35    1.1657764798158e-14
  36     0.077503873199798
  37     -0.81834947842935
  38    -0.0004745914114141
  39    -2.1647503719936e-16
  40     -0.01279233675362
  41    0.0092287967736456
  42    2.0537427935583e-18
  43     0.033254320544344
  44    -0.078086732842671
  45    -0.088730002745599
  46    -5.6360201455487e-15
  47     0.011099866778883
  48       0.1605974275264
  49    -1.4167527363321e-14
  50      0.43456229136133
  51       1.2411623010516
  52    -0.0041216923661352
  53    1.5527106782714e-16
  54    -0.0069433799429602
  55    -0.010241523589283
  56    -3.6016191402028e-16
  57    0.0057637256618737
  58      0.01072070808199
  59     -0.92295035389107
  60    4.5604712393625e-15
  61    -0.080459823101906
  62    -0.078818546108829
  63    1.6663835098509e-14
  64      -1.0523872875936
  65    -0.097206900396314
  66    0.0071926725377655
  67    -1.9165998243212e-16
  68    -0.0092618464332961
  69    0.0089236569016617
  70    -4.6168733351916e-17
  71    -0.0051021189986269
  72     0.010654989643443
  73      -1.1276291391679
  74    -7.5252806315435e-15
  75      -0.1415266971518
  76      0.12533779121688
  77    -1.8990925398283e-14
  78     -0.44498450030794
  79      -1.2971722653552
  80    -0.023216331314986
  81    -2.8966613345085e-16
  82    -0.010637225726062
  83    -0.011140089400538
  84    1.8221898483494e-16
  85     0.070768669099627
  86     -0.10193811108554
  87     -0.13791967802818
  88    3.9719467519033e-15
  89     -0.04527710812674
  90    -0.047552187699534
  91    1.6533597960381e-14
  92     -0.11685799667794
  93      -1.6953397966975
  94     0.027079699573347
  95    4.0837887906158e-16
  96    0.0092052689616721
  97    0.0040014662273877
  98    -9.2857312434623e-17
  99    0.00047560454893378
 100     0.074292450662651
 101     -0.72655332125755
 102    -3.0308978954005e-15
 103     -0.16935160222826
 104    -0.089678848366565
 105    -3.4155479994724e-15
 106      -2.1217333985461
 107    -0.050014944191494
 108    -0.0054880854143252
 109    5.6851147360646e-16
 110    -0.016834033745286
 111    -0.00061511655381376
 112    -6.1950567615798e-16
 113    -0.025303675519885
 114     0.071312750683335
 115    0.0017221940342538
 116    2.1643863810299e-15
 117    0.0033774146765378
 118     0.079508811646372
 119    1.5024998493959e-14
 120     -0.14847861241731
 121       1.5194373216021
 122    0.0090537624073513
 123    8.8523966606835e-16
 124     0.027265056265635
 125    -0.0053464435246305
 126    7.5310635954603e-16
 127    -0.042649030825408
 128     0.099327597927956
 129     0.028924357755569
 130    -7.7327520607592e-15
 131     0.046809296886279
 132      0.06188157749209
 133    -1.8523873209899e-14
 134      0.25723035322696
 135       3.1518548453975
 136     0.017444656335451
 137    -1.38344206884e-15
 138    -0.0015624747057651
 139     0.013714733711971
 140    6.019054505745e-16
 141     0.058171391191412
 142       0.7705876049466
 143    0.0021385529367863
 144     -0.28354364810324
 145    -0.0080059169234196
 146       1.3887258499959
 147    -0.046190431116575
 148     -0.81481084389556
 149    -0.042195431934846
 150        0.226037959795
 151     0.046169666758327
 152     -0.48517687030083
 153      0.14390087793045
 154     -0.92927425461208
 155    -0.028724095813471
 156    -0.052446038442403
 Sym= A
 Ene=    0.3515822514
 Spin= Alpha
 Occup=    0.00000
   1     0.054547967305704
   2    -0.049899730500277
   3      -1.3357583527118
   4    3.7497016833949e-15
   5     0.080918697583126
   6    -0.065097829469715
   7    1.2371472637624e-14
   8      0.55414999628821
   9     0.064570993150809
  10    -0.0069502982605803
  11    1.413666387415e-16
  12    0.0064488782489707
  13    -0.0049111958632634
  14    1.8504509080162e-16
  15     0.018201757463108
  16    -0.032748362258223
  17     -0.33656503577682
  18    -2.3978742645433e-15
  19     -0.10011724380819
  20    0.0088261636093551
  21    -3.9998990856584e-15
  22     -0.65502718346264
  23      0.25259644973892
  24    0.0098271661903789
  25    2.6586263654942e-16
  26    0.0054517790354099
  27    0.0011695500157499
  28    -5.5954664279813e-16
  29    -0.009177125414712
  30     0.030388066740713
  31     -0.13296548092937
  32    1.7007185107465e-15
  33     0.026036712749603
  34     0.039520635462909
  35    4.0993169526711e-15
  36      0.32246665579667
  37    -0.011883655621282
  38    0.0040972366902384
  39    4.2522463007402e-16
  40    0.0022062840176755
  41     0.006019041034548
  42    3.2616463116938e-16
  43     0.006788787592301
  44    -0.045219124706351
  45      0.33914897871786
  46    -2.0429367471803e-15
  47    -0.021094891458157
  48    -0.060265998312539
  49    -6.9872474363171e-15
  50      0.20246331533267
  51     -0.10607709864856
  52    0.0038999685412473
  53    4.4710432860646e-16
  54    0.0018122744976939
  55    -0.0020133481693556
  56    -3.7809604517422e-17
  57    -0.054584369444067
  58     0.051382424718637
  59       1.1618520396582
  60    3.0380589013169e-15
  61    -0.050200529737859
  62     0.046391143992956
  63    1.2856426844003e-14
  64     -0.27746160487926
  65      0.34445379192886
  66    -0.0086357263204372
  67    -6.8997123912518e-16
  68    -0.00086271357856251
  69    -0.00055699690628171
  70    -4.4653336416448e-16
  71    -0.0032510562553589
  72    -0.029382738968707
  73       1.1008046094061
  74    -7.9746200064714e-15
  75      0.15212335177127
  76     0.060037181173322
  77    -2.1193023586855e-14
  78      0.74628832540841
  79      0.69656579224075
  80     0.018277814241478
  81    -1.2965828995356e-16
  82     0.019981829607777
  83    0.0037367150787877
  84    -4.7222431880459e-16
  85    -0.031518142324663
  86     0.032392924513542
  87      0.12546526896442
  88    4.7233352697029e-15
  89      0.29203533696158
  90    -0.046990691472724
  91    2.0101032833749e-14
  92        2.170704623845
  93       1.0009487208672
  94    0.0023761691447323
  95    8.6265316077153e-16
  96    -0.024120083690983
  97    0.0063510710333876
  98    -6.5182385962016e-16
  99      0.03889674515129
 100    -0.065720903025423
 101      -1.6839605437756
 102    -3.6470340382375e-15
 103    -0.096987531979173
 104     0.087499429452077
 105    -9.6816351690362e-15
 106      -0.4156790878381
 107      0.71347049441428
 108    -0.0076323625963823
 109    -5.0170885363797e-16
 110     0.023981777624508
 111    0.0036289151987405
 112    -4.2157502814523e-16
 113    -0.019798774750226
 114    -0.027635672315709
 115      0.73281940908951
 116    1.0378234868759e-15
 117     -0.12585227664283
 118     0.015295413548735
 119    7.1987108924512e-15
 120      -1.0734949462787
 121     -0.11220147060922
 122     0.023479283251004
 123    1.4722375479818e-16
 124    -0.013616842179303
 125    0.0043617865785384
 126    6.1056658137035e-16
 127     0.026608838484329
 128    -0.022535046574297
 129      -1.2362898609187
 130    -2.7737059581749e-15
 131      0.17241547286384
 132    0.0078246761608528
 133    -7.2936810801229e-15
 134       0.9302002426441
 135     -0.15773741094432
 136    -0.027527086901031
 137    -3.7737730813251e-16
 138       0.0163637291184
 139    -0.0082236215355816
 140    -1.7484922180706e-16
 141    -0.026949741796594
 142        0.768634425509
 143    -0.007063291641547
 144    -0.088577478893838
 145     0.029528210302686
 146    -0.091121838787242
 147    -0.0067801084857215
 148     -0.78326180820167
 149    -0.065478230574988
 150         1.93996111082
 151    -0.076103734897436
 152     -0.42086558085074
 153    -0.0012891243784531
 154      0.33333247410565
 155    -0.0055853902474972
 156     0.004466474789178
 Sym= A
 Ene=    0.3667549708
 Spin= Alpha
 Occup=    0.00000
   1     0.026262024034274
   2    -0.087324184101936
   3        1.769219739956
   4    1.985963133446e-14
   5    -0.052765021063285
   6     -0.10075845845139
   7    5.9712000102051e-14
   8     -0.78151302812563
   9      0.89224565520639
  10     0.042126995884793
  11    5.5693572623371e-16
  12    -0.0028552070108166
  13    0.0099691870552842
  14    -3.0044980789225e-17
  15    -0.008787534941497
  16     0.039917756019217
  17      0.22418598665816
  18    -1.0333137779848e-14
  19     -0.17220798336657
  20     0.082180518221706
  21    -2.8478354407154e-14
  22     -0.79181408010079
  23    0.0085041049953236
  24    -0.018385567556816
  25    -5.8093047442602e-16
  26    -0.013981246190633
  27    -0.0078202133850732
  28    -2.5216977401089e-15
  29     0.021867487244671
  30    -0.046510681245588
  31     -0.26153229234093
  32    8.0997903381817e-15
  33    0.0068724541948121
  34      -0.1175942592044
  35    3.2716915519171e-14
  36    -0.019742018207108
  37     -0.23216887685871
  38     0.012043253353423
  39    -2.6740323083802e-16
  40    -0.0051185130327013
  41    0.0055533559849482
  42    5.9999186561528e-16
  43    -0.013962363810155
  44    0.0090506325917474
  45      0.20902373462979
  46    -6.4811969538472e-15
  47    -0.079598093966011
  48     -0.10143053455652
  49    -1.2993413685801e-14
  50     -0.27251034658681
  51     -0.66573561915117
  52    0.0069389182129309
  53    1.8835499731077e-15
  54    0.0025012138924492
  55    0.0038125059307584
  56    -2.1269782170685e-17
  57    0.0093959886417785
  58    -0.0032988634662811
  59     -0.43220041067479
  60    4.9949472123983e-15
  61        0.107603971746
  62     0.044993018319142
  63    2.691743919341e-14
  64      0.78992535313679
  65     -0.18807686707498
  66    0.0003076412402588
  67    -1.1714115743565e-15
  68    0.0040891653010267
  69    -0.0024280017528056
  70    -5.6232107782199e-16
  71     0.054781204212661
  72    -0.057933713772123
  73      -1.9608003598773
  74    -1.6929452338231e-14
  75      -0.1004674278725
  76    -0.086412945459104
  77    -4.4948117919994e-14
  78     -0.82700994859115
  79     -0.69336906460636
  80     0.011072340291519
  81    1.0885800079378e-16
  82    -0.0061173359621157
  83     0.008333295910235
  84    1.1727397766743e-15
  85    -0.057640359168987
  86     0.031129319681732
  87       2.4874780862269
  88    9.4969098601457e-15
  89    -0.026370890007353
  90     0.019712433679001
  91    4.1711495737964e-14
  92      0.24465293563559
  93     -0.38632805406628
  94    -0.018840801355499
  95    1.2221241833957e-15
  96    -0.009416502879554
  97    -0.013219926711987
  98    -1.1969607175232e-15
  99     0.068150854587343
 100     -0.10236985330903
 101      -2.1466834188556
 102    -6.2845910182157e-15
 103     -0.13043982379039
 104      0.19516825736081
 105    8.6745281216955e-16
 106     -0.90128904025659
 107       1.7304362273032
 108    0.0071151687874334
 109    1.2674223949274e-15
 110    0.0066415051525734
 111     0.012445528675456
 112    -1.8206027501929e-15
 113    -0.014376649538954
 114     0.014187036683007
 115     -0.51570838406374
 116    6.3225816040234e-15
 117     0.036584800664164
 118    -0.023966803724321
 119    4.4834328062501e-14
 120     -0.26586260795341
 121      0.79091718549393
 122     0.021636416415658
 123    2.6649158347256e-15
 124    -0.00084687089605379
 125      0.01412218318632
 126    1.9616292092788e-15
 127    -0.085542736500311
 128      0.10433173429141
 129       1.3822097584983
 130    -2.2684612684511e-14
 131    -0.004765255130716
 132    -0.047256178162036
 133    -6.6471092604714e-14
 134      0.10539210495782
 135       2.3291698203705
 136    -0.033130162077391
 137    -3.2723008433995e-15
 138     0.027195358389944
 139    0.00077169486798645
 140    1.349047097385e-15
 141     0.053151330644724
 142      0.96614362148985
 143     0.029017409289629
 144     0.030120458520033
 145    0.0053619242366496
 146     -0.93156074348069
 147     0.016294878532952
 148      0.93646018812871
 149     0.045074213518816
 150     -0.62332470657009
 151     0.060144270906926
 152      -1.0301906544863
 153     0.040349234837665
 154     -0.30979467591966
 155    -0.024350700684708
 156     -0.14166484306967
 Sym= A
 Ene=    0.4009437419
 Spin= Alpha
 Occup=    0.00000
   1    6.4267996481569e-15
   2    -1.0795312037164e-14
   3    -2.5286272016045e-13
   4      0.29073707422344
   5    -3.7466115382021e-15
   6    2.5324498689015e-14
   7      0.86886194395069
   8    -4.7376463728034e-14
   9    -6.4789052516674e-14
  10    -9.092218355575e-16
  11    0.0076641494010791
  12    1.2692256419824e-15
  13    -2.0124466191387e-15
  14    0.0066127055049851
  15    -7.7219092771246e-15
  16    1.0113835363471e-14
  17    9.6279173695324e-14
  18     -0.21387209409389
  19    7.584259538005e-15
  20    -4.3156468463277e-15
  21     -0.66461963983751
  22    1.5360870664822e-13
  23    1.031589702656e-13
  24    -3.9010716765599e-15
  25    0.0016380521057602
  26    3.6278816302069e-15
  27    -1.1029868191626e-15
  28    -0.017830292150372
  29    -7.2043929951162e-15
  30    -1.2083890566954e-15
  31    1.6743620086318e-13
  32      0.20528487134046
  33    -2.9390017413046e-14
  34    1.8924241061037e-15
  35      0.60531665112227
  36    -1.9367514515971e-13
  37    1.4774825604596e-13
  38    4.211487872245e-15
  39    -0.0094977333198022
  40    3.1238380825604e-15
  41    4.8221371941761e-15
  42    0.0005861150769756
  43    1.0919609994621e-14
  44    -5.9610370741988e-15
  45    -3.352124790234e-13
  46     -0.18594035057359
  47    -2.2585356532224e-14
  48    -1.8488590060927e-15
  49     -0.54673073075128
  50    -1.1476529921394e-13
  51    -1.1681642320196e-13
  52    -3.8276197118238e-15
  53       0.0114416131991
  54    -4.1593415830512e-15
  55    -1.7263292852745e-15
  56    0.0096991130168165
  57    3.5512232177029e-15
  58    -5.6540790243175e-15
  59    1.9493393910113e-14
  60       0.1737521880408
  61    1.4437576309546e-15
  62    -1.7934751869546e-14
  63      0.60809173471264
  64    7.1216969648249e-14
  65    -1.4387827686813e-13
  66    3.8150509976206e-15
  67    -0.0061964062665586
  68    3.0705603098884e-15
  69    1.0341912129575e-15
  70    -0.018202204602571
  71    -1.1132230443901e-14
  72    1.6139233446925e-14
  73    2.8794868040629e-13
  74     -0.31580500819209
  75    1.0074454942603e-15
  76    -9.7449157776555e-15
  77     -0.83717104042283
  78    -4.4492460370739e-14
  79    7.1937618796782e-14
  80    -6.7321479078396e-16
  81    -0.0075121741302521
  82    7.4938368773658e-16
  83    1.5006376247467e-15
  84    0.0054946589918662
  85    4.7311883342239e-15
  86    -6.4974503152144e-15
  87    -1.8644976272745e-13
  88      0.12043958241222
  89    4.0415226013445e-15
  90    4.3410020799421e-15
  91      0.68826733708607
  92    6.3915230686557e-14
  93    1.3807101708706e-13
  94    8.1862359265479e-16
  95     0.025262780452404
  96    1.0893441236872e-15
  97    9.6963412859873e-16
  98    -0.013331590645781
  99    -5.605176215001e-15
 100    5.0647893108362e-15
 101    1.6184806720114e-13
 102     -0.11410468893683
 103    9.1048144655761e-15
 104    -1.4504093422333e-14
 105    -0.091417051484071
 106    1.477581496432e-13
 107    -1.4724188405575e-13
 108    -8.7944901163243e-16
 109     0.011755982179736
 110    3.5131911958452e-16
 111    -4.2351912499034e-16
 112    -0.029480826131585
 113    1.9037600675809e-15
 114    -5.7181026619095e-15
 115    1.1837417184502e-14
 116    0.0083968779791471
 117    -4.6913362145409e-15
 118    5.8043971003675e-15
 119      0.43709279172553
 120    2.2283010908134e-14
 121    -6.3438205308369e-14
 122    -1.5305491590309e-15
 123     0.021978883759628
 124    -1.1870271521684e-15
 125    -4.1380191713272e-16
 126     0.025745713084109
 127    4.8807654333381e-15
 128    -3.2855117859685e-15
 129    -1.436505417394e-13
 130     -0.19614176094857
 131    4.5384993357819e-15
 132    -1.0383528524508e-14
 133      -0.6752567539253
 134    7.8318263824623e-14
 135    -2.629740693447e-13
 136    1.6080250755715e-15
 137    -0.044705464818327
 138    -1.6851439218465e-15
 139    6.274041629197e-16
 140     0.013195423715787
 141    4.1504301018753e-15
 142    -1.8619540214451e-13
 143    1.9380769357176e-15
 144    3.2747058806955e-13
 145    -1.2827752785781e-14
 146    -3.1926880497526e-14
 147    -8.5050301512083e-15
 148    5.5033472683593e-14
 149    -4.8869136070566e-15
 150    7.2818612688105e-14
 151    -9.7139220247043e-15
 152    1.0857720422547e-13
 153    -6.548784828883e-15
 154    2.7657385771837e-14
 155    -5.3358871982562e-15
 156    -1.7291514522894e-13
 Sym= A
 Ene=    0.4420108112
 Spin= Alpha
 Occup=    0.00000
   1    -0.0032076060263851
   2     -0.11979463560605
   3       2.7347404110455
   4    -1.0839936813899e-14
   5      -0.1394942477714
   6     -0.08771508976187
   7    -3.1468055806295e-14
   8      -1.9441793840489
   9      0.74274621391731
  10    0.0029008615070457
  11    -4.1344064856432e-16
  12     0.011920748505901
  13    -0.0019137699819306
  14    -1.5213528591599e-16
  15    -0.0089283736764084
  16    6.516763152167e-05
  17       0.6859696248316
  18    1.000704324174e-14
  19     0.060126836275468
  20     -0.01154947348328
  21    3.1504719510941e-14
  22      0.72442763214435
  23      0.44796607883309
  24    -0.016408316692548
  25    3.3037084049642e-16
  26    -0.0013360571934098
  27    -0.0075064231867062
  28    1.2133640145768e-15
  29     -0.01726226146695
  30    0.00017853399504142
  31      0.62256819508326
  32    -9.2461637588306e-15
  33     -0.10669122929871
  34    -0.018962355935923
  35    -3.0734077825926e-14
  36      -0.3995267517021
  37      0.22351630034568
  38    0.0046367922134293
  39    -5.787410144834e-17
  40    -0.0022618887662183
  41    -0.0010945571290105
  42    -1.59069844042e-15
  43    0.0020506038604244
  44    0.0087183122290245
  45     -0.37345694598741
  46    6.9376995538069e-15
  47     -0.04731239444883
  48      0.10497124367334
  49    2.5769416113603e-14
  50     -0.27537406177715
  51       0.6411174292264
  52    -0.021213956434355
  53    -2.1559347452622e-16
  54    -0.0071060318798384
  55    -0.011817645191835
  56    2.994717138555e-16
  57     0.055331018140911
  58    -0.060575927610892
  59      -2.0970407994307
  60    -5.9248936469894e-15
  61     -0.15618866093514
  62    -0.095360401815005
  63    -2.4691835431327e-14
  64     -0.89735765838295
  65     -0.85298157584269
  66     0.010899547237888
  67    1.7747731106851e-16
  68    -0.0001076297810942
  69     0.007920074717639
  70    1.2568372720765e-15
  71    -0.012331682504301
  72    -0.034855133940466
  73      -1.2789708334891
  74    1.1825556099277e-14
  75    -0.073981434201214
  76     -0.10742084322535
  77    2.9493524243735e-14
  78      -2.3257329050533
  79      -1.9225432806897
  80     -0.04328846966845
  81    5.8210016230046e-16
  82    -0.021274479323459
  83    0.0081335464938697
  84    1.0167596771362e-16
  85    -0.043011608316393
  86     -0.17243299098288
  87       4.8908746534832
  88    -2.6006318333483e-15
  89     0.079044695284324
  90      0.24388358214614
  91    -2.311075537061e-14
  92       2.5657139180281
  93    0.0081333091111926
  94     0.013199649013913
  95    -1.6340137807499e-15
  96     0.041356352085567
  97    -0.010841228319153
  98    1.5895702391268e-16
  99     0.019050285933942
 100    -0.066719397251474
 101       -1.226910758928
 102    5.3051619277203e-15
 103     -0.13262367569996
 104    -0.046726509211347
 105    1.1987422344693e-15
 106       1.2901751584297
 107       1.1413810372762
 108     0.015233086424701
 109    -4.5707475820918e-16
 110     0.027104401056472
 111     0.027703214567389
 112    1.2579043870119e-15
 113     0.017166855405326
 114      -0.1084966105168
 115      -1.9471225780031
 116    2.1867343496586e-15
 117       0.1354835065122
 118    -0.024639535794352
 119    -1.3879725316835e-14
 120      0.32312396690151
 121      0.83710256625435
 122     0.021781105901415
 123    -9.0510326126085e-16
 124    -0.026253767789152
 125     0.025038980142133
 126    -1.2063125165684e-15
 127    -0.0058759330878705
 128    -0.068644515145588
 129      -1.4521704201296
 130    5.6262393462338e-15
 131      0.10914660316892
 132    -0.046992770029952
 133    2.1226068054248e-14
 134       2.3390788797853
 135       1.4569967701101
 136    -0.037766786464808
 137    1.8063187322241e-15
 138    -0.006307337355558
 139     0.010003821579021
 140    -8.5855170442165e-16
 141      0.04152272240839
 142     -0.70253976638399
 143     0.021869400833344
 144      0.38188271694146
 145    -0.055279433831687
 146      0.45464678054071
 147    -0.052385350481339
 148     -0.53649747212303
 149     0.010043809875447
 150      0.65146613802496
 151    -0.058948867001845
 152      0.10007847388726
 153    -0.077398227904575
 154     -0.30378971040372
 155     0.015022119123824
 156     -0.16353686723252
 Sym= A
 Ene=    0.4562675573
 Spin= Alpha
 Occup=    0.00000
   1     0.036389144058253
   2     -0.16020660078754
   3       2.5927723101548
   4    -3.2151366686583e-15
   5       0.1395895000386
   6    -0.052149195276556
   7    -1.2691667888676e-14
   8      0.20487835726545
   9       2.6079093327367
  10    -0.018753821271948
  11    3.3622067450923e-16
  12     0.017373030161235
  13    -0.0031444949756904
  14    -1.7993383402889e-16
  15     0.016909329826191
  16    -0.067070497497003
  17      0.64418627643158
  18    2.6411268474021e-15
  19     0.068621036310236
  20    -0.053024372811889
  21    8.9537483836729e-15
  22      -0.1012476954715
  23      0.48184076644883
  24    0.0076856643696966
  25    8.9796993888576e-16
  26    0.0094560782863501
  27    -0.00010917331667441
  28    5.1782264024913e-16
  29    -0.037648467230445
  30     0.030887612286221
  31      0.67725864503047
  32    -2.0737421253837e-15
  33    -0.059200330955797
  34     0.071998627931583
  35    -1.898910034889e-14
  36    -0.081119548093949
  37      0.24076720903007
  38    -0.0058391802765868
  39    2.1737890715868e-16
  40    0.0094794219623106
  41    -0.0039388548186647
  42    -1.2728580416476e-15
  43     0.032804094331943
  44    -0.051273879019436
  45     -0.61812422501772
  46    8.3292093027069e-15
  47     0.039454420205586
  48     -0.14449757371087
  49    1.6989447126587e-14
  50     0.019020417302306
  51     -0.30983329564616
  52    -0.008114231157554
  53    3.8411403755178e-16
  54     0.001721837147181
  55    -0.0087081742531839
  56    -9.988679399553e-17
  57     0.005656568525222
  58     0.028891704009106
  59      -1.1528348598561
  60    -3.3481039305904e-15
  61     -0.04659674827751
  62    -0.051598011823518
  63    -2.1631480894391e-14
  64     -0.85721554868074
  65      -1.3733832971273
  66    -0.016283882750502
  67    4.7398389271901e-16
  68     0.030105498345119
  69    -0.0026194181912487
  70    4.0708044205343e-16
  71    -0.046643631849533
  72     0.047046355881625
  73      -0.5493200244897
  74    4.1317205062196e-15
  75      0.10251864037101
  76     -0.16160696534531
  77    1.0359600939901e-14
  78      0.13240153461819
  79      -3.0641766737822
  80     0.010561743037109
  81    7.0502980222927e-16
  82    -0.0098071920352011
  83      0.01676125751292
  84    -3.6259286149949e-16
  85    0.0058631851340162
  86     -0.08777199958808
  87       3.1192361985624
  88    7.9419917710052e-16
  89    -0.047697919895369
  90     -0.11162940785792
  91    -1.1355183828496e-14
  92      0.17453540656566
  93      -2.0538771590055
  94    -0.019002463752106
  95    -2.9346022553864e-17
  96    0.0072331675398044
  97    -0.020929304306588
  98    6.7826741324259e-16
  99     0.013774296463228
 100     0.077816581504813
 101     -0.80714058451624
 102    1.9849508911452e-15
 103    0.0061168257274034
 104     0.036817425881806
 105    3.6175719682183e-17
 106      -1.1953655650077
 107       1.4996462989919
 108     0.032494577784069
 109    -3.5243911812687e-16
 110    -0.033555527522665
 111     0.015165944109562
 112    5.9471862866612e-16
 113     0.060088190969736
 114    -0.012606298788566
 115      -2.7726044111028
 116    -3.3819886926106e-18
 117       0.1142368410523
 118      0.15778517531164
 119    -1.0256224696287e-14
 120       1.3155282052376
 121       2.4004979913256
 122     0.019332712982236
 123    -8.6983237949895e-16
 124     0.024131110506398
 125    -0.0099628766057133
 126    -6.0197899154631e-16
 127    -0.069933214834476
 128     0.043422602625759
 129       1.6407852359285
 130     4.49317577377e-15
 131    -0.061329276198562
 132      0.25470094082585
 133    1.5558700576476e-14
 134      0.89257645905161
 135       4.9530995265914
 136    -0.010257396883256
 137    3.8403651204906e-16
 138    -0.043099221093169
 139    0.0049001380401548
 140    -5.418803961304e-16
 141    -0.032151611003738
 142     -0.17137248420665
 143    -0.039335050522226
 144     -0.40327371751233
 145    -0.011235037969287
 146     -0.21470808937855
 147     0.042063262801337
 148     -0.44853081310924
 149      0.12633496374714
 150      0.18420218033201
 151        0.164871500378
 152      -1.1691669999091
 153      0.20507328617076
 154      -1.4481261680665
 155    0.0085411527840581
 156      0.42466988384236
 Sym= A
 Ene=    0.4613805289
 Spin= Alpha
 Occup=    0.00000
   1     0.062638933267102
   2    -0.033529777089758
   3      -2.5790527062047
   4    -3.4398301619404e-14
   5    -0.096248139282741
   6      0.18651695574205
   7    -9.5080230378885e-14
   8     -0.19103306737425
   9      0.21130258383949
  10      0.01941491117379
  11    -1.4662316371407e-15
  12    -0.0036937962465554
  13    -0.0021453777233799
  14    4.9063393604729e-16
  15    -0.047069509493174
  16      0.07966106585189
  17      0.49722144606004
  18    3.1466392009514e-14
  19     -0.11040181026065
  20     0.048483454336457
  21    1.0815765451396e-13
  22     0.047692809709264
  23        1.087304791235
  24    -0.026199342946204
  25    1.8379323132106e-15
  26     0.020814527298407
  27    -0.006831557932351
  28    2.9258438758513e-15
  29    -0.022935684844587
  30    0.0061038799237864
  31      0.78497310872929
  32    -2.9173296782419e-14
  33     -0.14499104473939
  34     0.051644226410482
  35    -9.5967157813894e-14
  36      -1.3472910984798
  37       1.3051832675213
  38     0.031873850576444
  39    1.4014811307089e-15
  40    0.0063925727760423
  41     0.010522448502653
  42    -3.1732522315107e-15
  43     0.049635324756962
  44    -0.033379291184729
  45      -1.6659898024812
  46    1.8612170252857e-14
  47     -0.17181851083165
  48    -0.029629084718598
  49    7.5042173294703e-14
  50      -1.1152902586303
  51      -1.0286660070134
  52    -0.018933640876755
  53    4.2039333814961e-16
  54    0.00045218109888076
  55    -0.0063058318712963
  56    -5.2291211691548e-16
  57     0.019683385337866
  58    -0.043402788542038
  59      0.21161850123247
  60    -1.7456294850573e-14
  61    -0.0096827613692118
  62    -0.013619896491147
  63    -6.9796848519502e-14
  64      0.48781290614852
  65     -0.67894638975437
  66     0.021694880837747
  67    4.4200882363656e-16
  68     0.013350096049397
  69    0.0050690714018355
  70    2.1644651056301e-15
  71    -0.050034523101708
  72     0.091304974551369
  73       1.6897247312388
  74    3.2949507185986e-14
  75    -0.080098470934507
  76    -0.035550285283863
  77    8.5042248447686e-14
  78      0.05881094461692
  79       0.4007972358088
  80    0.0018151789348337
  81    1.4306526615999e-15
  82     0.013077221319634
  83    -0.0061278431826693
  84    -1.4480409474693e-15
  85     0.039520606091606
  86    -0.0030910216462967
  87      -2.0174600507294
  88    -6.7831449047362e-15
  89    0.0011611925969367
  90    -0.018124841758546
  91    -6.6608464204138e-14
  92     -0.44751048279731
  93      0.64511295201655
  94    0.0015631742530775
  95    -2.9072187407755e-15
  96    -0.0098674944422244
  97    0.0067817193482137
  98    1.1417085381762e-15
  99    -0.019162782628933
 100    -0.004917994369746
 101      0.78047599224914
 102    1.2868303343734e-14
 103      0.03933618576687
 104    -0.012809306990161
 105    3.6075707134705e-15
 106     0.077318662954716
 107      -1.0086447170994
 108     -0.01566065467756
 109    -1.183596653141e-15
 110    -0.0025212096124179
 111    -0.011775889036507
 112    3.193158934729e-15
 113    -0.017626032686773
 114    0.0015424338571807
 115       1.3077607169893
 116    4.5753545937033e-15
 117    -0.090156424361352
 118    0.0063492880627278
 119    -3.6982004003093e-14
 120     -0.49382496062938
 121     -0.90997339546827
 122    -0.012505961987466
 123    -1.6830657773679e-15
 124    -0.00061982738734879
 125    -0.0043426378543729
 126    -2.6752541548115e-15
 127    0.0082623012222742
 128     0.062646883040237
 129     -0.94569675061025
 130    1.2812375290235e-14
 131    -0.030329744755046
 132      -0.1260487872199
 133    6.350807419159e-14
 134     -0.47638081119364
 135      -1.8908278145167
 136     0.010878074281472
 137    5.3613151072827e-15
 138     0.017465956231085
 139    0.00058372863544056
 140    -9.0381035777741e-16
 141     0.050117788538807
 142    -0.026171426985694
 143     0.078878799473826
 144       2.7190883832775
 145     -0.05166127484465
 146      -0.8378898582316
 147    -0.047527149823971
 148       0.3242228435937
 149    -0.043668446377003
 150     0.050003586004835
 151    -0.054561907474976
 152      0.43402466858363
 153    -0.033635819439768
 154      0.50276514642412
 155     0.027506922156302
 156      -1.2582020331915
 Sym= A
 Ene=    0.4771393833
 Spin= Alpha
 Occup=    0.00000
   1    -0.014461431481031
   2    -0.092569107393026
   3       2.3434380735268
   4    -1.0084198568238e-14
   5      0.01399478845118
   6    -0.012543860291162
   7    -2.6234138617137e-14
   8     -0.78669695300591
   9      0.55744918668527
  10    0.0081252767201106
  11    -6.60122384347e-16
  12     0.035634263077483
  13    0.0054916698463389
  14    3.8341575017586e-16
  15    -0.022318266162474
  16     0.019318991517024
  17      0.41655636367059
  18    8.5495012453194e-15
  19    -0.060169487867937
  20     -0.23125787983417
  21    3.1352215838446e-14
  22    -0.021635223686946
  23     -0.46579065262132
  24    -0.0091963773547251
  25    -2.8557385208026e-16
  26     -0.01512743123808
  27    -0.0018436032463115
  28    8.798944139578e-16
  29      0.09156999325976
  30     -0.06674207421633
  31      -2.6014900296759
  32    -1.103987022913e-14
  33     0.056698217018913
  34    -0.019599943291657
  35    -1.2890903649001e-14
  36     -0.36300933165076
  37      0.79574253337029
  38       0.0168452826804
  39    8.0805541161103e-17
  40     0.028253041278433
  41     0.010876098414233
  42    -6.9633477240282e-16
  43     0.019242211859765
  44    -0.015070265797431
  45     -0.88138694233522
  46    -1.7975547204683e-15
  47    -0.001812120635234
  48    -0.039310996795976
  49    1.2876356980604e-14
  50       1.0941802133334
  51       -1.573859729558
  52     0.019064523221678
  53    -4.4683840071416e-16
  54    -0.025809656871137
  55     0.014290607828771
  56    -1.1048954467142e-15
  57    -0.050450299971713
  58    -0.056094713774042
  59        2.362822226819
  60    8.9247777616475e-16
  61     0.026610478388738
  62      -0.2163919129429
  63    -1.5203408782128e-14
  64       0.9882163635646
  65     -0.68279733352828
  66    -0.0047515371397071
  67    9.576760929067e-16
  68    -0.0067521189578449
  69    -0.011772999055588
  70    -3.8794655836466e-17
  71    0.0039897975501782
  72    -0.048021398947833
  73     -0.77319881076936
  74    5.4762250245101e-15
  75     0.024618288123416
  76     0.092128664304432
  77    1.5847827598791e-14
  78       -0.500250077257
  79       0.9531001564514
  80    0.0037947056899973
  81    -3.7364503445891e-18
  82    -0.039288477716698
  83     0.016704210563226
  84    -8.1045430961863e-16
  85    0.0097836426538725
  86    -0.051585318067005
  87     0.049860574001085
  88    9.3138776191392e-16
  89    -0.040862523667518
  90    -0.043295091401595
  91    -1.460286610727e-14
  92      0.99218242349171
  93    -0.011629535133953
  94    0.0090739432048124
  95    -4.6318362397714e-16
  96     0.029995416028006
  97    0.0039640630865551
  98    3.9182928643578e-16
  99    -0.051771418257926
 100     0.050914368145732
 101      0.98287654160672
 102    3.4362247403079e-15
 103    0.00070401735315716
 104      -0.1382626297074
 105    -4.0118120259724e-15
 106      0.80866526357919
 107     -0.50001426436618
 108    0.0078276111779264
 109    -6.0812492307912e-16
 110    -0.00066537631344283
 111     0.012706238904148
 112    4.6075303101791e-16
 113     0.054298025366892
 114    -0.063012145892091
 115      -2.6159966196401
 116    2.4736450661796e-15
 117     0.071291287258683
 118      0.10909469782936
 119    -1.4337594899149e-14
 120       1.2652558023708
 121       1.5114482847629
 122    0.0051668645046402
 123    -1.0479399767086e-15
 124    -0.0025702775699109
 125    -0.00014544497083536
 126    -1.0881972965866e-15
 127    0.0014487843194899
 128    -0.015319616195195
 129      -0.5269614267208
 130    4.1809826516738e-15
 131      0.13785472234674
 132    0.0014372163647319
 133    2.4387062967822e-14
 134       2.0148954588039
 135       1.8501278579799
 136    -0.0046115683728747
 137    1.8859197773962e-15
 138      -0.0396976354129
 139     0.017115986293896
 140    -7.6986344301687e-16
 141     0.017230376979015
 142     0.012611618422756
 143    -0.025788602271756
 144       2.9250739330144
 145    -0.033968648884553
 146     -0.44013146757975
 147     0.035834445414667
 148       0.1651935562493
 149    -0.003495012370129
 150      0.60839741495973
 151    -0.021993656870383
 152      0.43840329360107
 153     0.049732200177644
 154     -0.83242110198306
 155    -0.045421141872266
 156      -1.4083156756989
 Sym= A
 Ene=    0.5208239779
 Spin= Alpha
 Occup=    0.00000
   1    -0.014860310329079
   2     0.070085295309352
   3     -0.93717556591929
   4    -6.6979798122276e-16
   5      0.13758718042808
   6    -0.056332983398079
   7    2.8452712601638e-15
   8       1.6143539591137
   9      -1.8006906966408
  10      0.02169755047272
  11    -4.7889136408184e-17
  12    -0.0039652401598937
  13     0.017504945293651
  14    -3.5040352074868e-16
  15    -0.018254736513346
  16     0.073629136237911
  17    -0.040651945151028
  18    -1.520258823882e-15
  19      -0.0536970067319
  20    -0.016696647936783
  21    -8.4916358633132e-15
  22     -0.35154181500278
  23      -2.3048000705234
  24    0.0043100312240765
  25    6.3677312956773e-17
  26    -0.011729354846586
  27    0.0064888764344836
  28    -1.5255788655652e-15
  29    0.00043251272503936
  30       0.0199945248987
  31     -0.29141509124327
  32    -4.6098530494364e-15
  33     -0.14079926858985
  34     -0.11758699238519
  35    -6.6860030311304e-16
  36     -0.79818851832579
  37       -1.759824600894
  38    -0.019225633528654
  39    -1.6628266068577e-15
  40     0.019107364362929
  41    -0.0035359649492238
  42    -6.2937352459074e-16
  43     0.049146768546761
  44    -0.0016941724286513
  45      -1.9057855802712
  46    7.1232205300269e-15
  47      0.10182487865806
  48    -0.097980206572908
  49    4.7726048589088e-14
  50      0.11605033543247
  51     -0.16915175530088
  52    -0.016669349399777
  53    -1.8223783734863e-16
  54    -0.031503989822521
  55    -0.008418472341972
  56    -1.5328774158214e-15
  57    -0.00048218282883913
  58     0.077449426937395
  59     -0.38251854206561
  60    -6.5765256010393e-15
  61     0.060515521178051
  62     -0.10608610321332
  63    -4.1965378955223e-14
  64     0.077567402658122
  65       -1.769000985655
  66     0.010754572797801
  67    -3.1248580867178e-16
  68     0.027226190810643
  69     0.016459453295434
  70    8.2440148572498e-16
  71    -0.046307432837534
  72     0.032944339600635
  73       3.6068760267794
  74    2.4233312544436e-15
  75     -0.18525770203378
  76    -0.068646572823534
  77    6.1609979944286e-15
  78     -0.35615277904221
  79      0.18395183211998
  80     0.015219844289283
  81    5.7364212421577e-16
  82    0.0074382634705955
  83     0.011178571970839
  84    4.2814088249947e-16
  85     0.015900872019291
  86    -0.046181393690267
  87      -1.7671194618737
  88    5.8161938178387e-15
  89     0.074688115357594
  90    -0.043755022053743
  91    -4.1704914652176e-15
  92      0.35859652245881
  93       1.5486363652251
  94    -0.0014786759791004
  95    -3.422318514962e-16
  96     0.011248144609213
  97     0.024739670955374
  98    6.1805576890042e-16
  99    0.00071403231338054
 100    -0.057268056146339
 101      -1.1495186644483
 102    2.106608914131e-15
 103     0.018797058434374
 104     0.028522560284613
 105    -5.261458849754e-15
 106     0.059760622519793
 107      0.31827202838682
 108    -0.023668746499036
 109    -1.8094246504456e-16
 110     0.011963585820656
 111     0.016268640837103
 112    6.4731301068622e-16
 113     -0.03991969868185
 114     -0.10704945662153
 115       2.6132058945148
 116    3.2217020897871e-15
 117     0.012295061314811
 118    -0.030094912023566
 119    -4.0784894508444e-15
 120       -1.096461714167
 121       -1.839939328498
 122    -0.0084157266215785
 123    -4.5066911375911e-16
 124    -0.0091450215517675
 125    0.0023255189632764
 126    -5.5573026189834e-16
 127     0.011803930936985
 128     -0.10158717889839
 129    -0.061095447534624
 130    1.8411768966985e-15
 131     0.029208107282591
 132     -0.14298077842057
 133    1.8493473455801e-15
 134      -1.9981192570227
 135      -2.4032143937095
 136    -0.014086279046665
 137    7.9238279240741e-16
 138    -0.0064481432703454
 139    0.00078901825984588
 140    -4.5845271503063e-16
 141    -0.014942226801177
 142      0.26107890074628
 143     -0.14965488821443
 144      -2.5873173444735
 145     -0.12040470013538
 146      0.28802982280725
 147    -0.067136132525579
 148      0.19859169989058
 149    -0.066532648406825
 150      0.54490721163285
 151    -0.096106473012145
 152     0.049165137744377
 153     -0.11624570692396
 154      0.90404749178888
 155     -0.10250133660906
 156       1.6463281441891
 Sym= A
 Ene=    0.5723820189
 Spin= Alpha
 Occup=    0.00000
   1    -0.026538595026074
   2      0.36552174778316
   3       3.3032472433103
   4    -8.6609341258321e-15
   5    -0.0098452753520025
   6      0.19175214144695
   7    1.5643962232973e-15
   8     -0.74705563021899
   9       1.9073863633704
  10    -0.00085950189025409
  11    -1.2807711036912e-15
  12      -0.0245375062896
  13    -0.047503655349958
  14    7.0179559109935e-16
  15    -0.0064610719814502
  16      0.06026419300097
  17      0.69158751699829
  18    -1.7042915439084e-16
  19    -0.056774805887182
  20     0.016857950857973
  21    -4.7021169030987e-17
  22      -0.3625621229264
  23     0.097018520788218
  24      0.01130868515534
  25    -1.6763348439096e-16
  26    0.0068064801794652
  27     0.003139907778408
  28    -3.284188109002e-16
  29    -0.0071801287073091
  30     0.033091144139436
  31    -0.028887664129195
  32    -1.4777365098967e-15
  33    -0.019974210891903
  34     0.023041095939587
  35    -5.2503975507037e-15
  36     -0.14540154145231
  37      -0.1458570098753
  38    -0.0026792624065788
  39    -6.7120707988057e-17
  40     0.011415420421912
  41    0.0024543508816382
  42    -4.5016676225431e-16
  43     0.015296952907211
  44       0.0118608705388
  45     -0.70424223886762
  46    1.8674561390165e-16
  47    -0.0075969714074876
  48    -0.011301366716791
  49    1.5763947230713e-14
  50      0.11074721190527
  51     -0.36055371646152
  52    -0.0044856623297944
  53    -2.2863207177134e-16
  54    -0.012091561072498
  55    -0.0024528507944812
  56    -2.0614282572208e-16
  57    -0.015554446302754
  58     0.092285580743533
  59     -0.12112577218583
  60    -3.2159636392429e-15
  61     0.049323321598999
  62    0.0056594043567535
  63    -1.0586232070261e-14
  64      0.34792626669008
  65     -0.71061529745887
  66    0.0024549969317347
  67    -1.353461965603e-16
  68    0.00077900762621536
  69    0.0040425784769394
  70    1.9535659604536e-16
  71    0.00023534415472092
  72      0.30103720603097
  73     -0.29753486031884
  74    -3.6682361005814e-15
  75     0.090873155842096
  76     0.075999590479079
  77    3.7832612122393e-15
  78      -1.1588022559867
  79     -0.26561532730041
  80    0.0027295717895652
  81    -5.7909707350877e-16
  82     0.025175326848069
  83    -0.033141849522784
  84    -2.5500094971377e-16
  85    -0.0067562716100262
  86      0.53736204737417
  87       2.1831626927969
  88    -6.8712795020644e-15
  89      0.15144896910132
  90      0.14712581527219
  91    3.9078716344898e-15
  92       1.6302608765856
  93      0.88592357762832
  94     0.038305571372853
  95    -9.3470021724403e-17
  96    0.0065291940561184
  97    -0.074249716487898
  98    -1.063629578138e-15
  99     0.046620157991319
 100      0.64627719079229
 101      -2.5482926463272
 102    -9.3988514512151e-15
 103    -0.039384879760077
 104     -0.23297195189656
 105    4.2729303495139e-15
 106       0.3320544337917
 107       2.1177608915174
 108     0.035008358400097
 109    7.1153659838251e-16
 110    0.0066634008264531
 111    -0.057285388603118
 112    -6.3077002549251e-16
 113    0.0013538974519828
 114      0.49208484795485
 115      -2.2530341806655
 116    -8.2481386292704e-15
 117    -0.087575191404905
 118     -0.20934518629695
 119    1.9544305598805e-15
 120      0.82942960322148
 121       1.0455828523712
 122     0.010411079135004
 123    3.2890736266029e-16
 124    -0.0092344639603357
 125    -0.028584661711541
 126    9.9475211282398e-16
 127     0.075094390344478
 128      0.65519024697843
 129      -1.9928014157963
 130    -1.0242184185358e-14
 131    -0.018966934963621
 132     0.044179951247691
 133    1.5648483284442e-14
 134       1.3766850259204
 135       3.3314807423099
 136     0.058607782092852
 137    6.6990411079696e-19
 138     0.010693650927221
 139    -0.087962696372051
 140    4.5002329165568e-16
 141    -0.026062156856988
 142      0.24985378979045
 143    -0.049731994764197
 144     -0.22210872651081
 145    -0.031708123251344
 146    -0.043399228896885
 147    -0.036735297620936
 148      0.23579395328212
 149      0.12507888769015
 150      0.43927791054363
 151      0.13736918502042
 152     -0.63061552903858
 153     0.036367791178672
 154     -0.48060685957968
 155    -0.033057472127588
 156      0.23764275720718
 Sym= A
 Ene=    0.6282713695
 Spin= Alpha
 Occup=    0.00000
   1    -0.084707091983735
   2     -0.15732457619309
   3       5.1395904076194
   4    1.5624867321087e-15
   5      0.13791144959689
   6    -0.068299655253755
   7    4.3324394842651e-15
   8      0.54893322304131
   9       2.7522898413866
  10    -0.036296652555847
  11    -9.2117123081782e-16
  12    -0.0088513613707724
  13     0.026238074550276
  14    1.8427164885874e-16
  15     0.047584134023841
  16    -0.077548419526479
  17     -0.35119451271156
  18    3.7209525144967e-15
  19     0.039406752076538
  20     -0.17005774156147
  21    -3.1660340136953e-15
  22     -0.21773364057091
  23     -0.16692941527165
  24     0.043309381174993
  25    1.6235198494864e-15
  26    0.0043792589149513
  27     0.015014808246579
  28    4.2148727578449e-16
  29     0.024564496122463
  30     0.077614641925957
  31      -1.8725897027188
  32    2.5087216910005e-16
  33     0.075487479603232
  34      0.24592221258605
  35    -7.5445808278758e-15
  36      -0.0899870885745
  37       1.1442019604169
  38    -0.018629597936918
  39    1.7664322975291e-15
  40     0.016093050264818
  41    -0.0038943640970745
  42    -1.5436694516215e-15
  43    -0.025988423839982
  44      0.10284015090219
  45     -0.19502553449953
  46    -3.0497540866333e-15
  47    0.0054408243847264
  48      0.15541497197368
  49    -9.2173594848312e-15
  50      0.68738661684449
  51      -0.7411447095524
  52     -0.01984738000863
  53    -1.6593636702814e-15
  54    -0.0067154360851507
  55    0.0068664506438113
  56    1.8968121726219e-15
  57     0.027239015332444
  58    -0.069104868643668
  59      0.13649553314965
  60    3.6322367395396e-15
  61    -0.043587128661335
  62    -0.058975599596323
  63    6.6039132209967e-15
  64      0.22884762376097
  65     -0.88618279231668
  66     0.035163069292488
  67    1.2166999649635e-15
  68    -0.014331509740528
  69    0.0073779815904123
  70    -1.451740602927e-16
  71    -0.040700763020315
  72      -0.2092838371594
  73       2.4145794778442
  74    6.7205756151503e-16
  75     -0.11148243441936
  76     -0.15034167123653
  77    -6.4775979122436e-15
  78     -0.71549197560623
  79      0.65701059099117
  80    -0.032009051832812
  81    -2.6726295869301e-16
  82    0.0086112025446533
  83     0.020519628975527
  84    -5.2495107618408e-17
  85    -0.014118800379148
  86     -0.19735600341597
  87      0.77422376108856
  88    3.520206396926e-15
  89     0.029567592229558
  90      0.21051609743091
  91    -2.7614535822082e-16
  92      0.87225657801454
  93       2.0902159991344
  94    -0.023837660294529
  95    3.6773117328327e-16
  96    -0.0054497756686023
  97     0.010075730574842
  98    1.4678502742156e-16
  99     0.087504367107767
 100    -0.042749104519066
 101      -4.7558157216176
 102    -1.602242793678e-15
 103     0.014890100162101
 104      0.12157002763055
 105    1.1797560042236e-15
 106     -0.81082110839372
 107       3.1334767272635
 108    0.0037478809705011
 109    -1.2681733240201e-15
 110    -0.0054657657152402
 111    -0.013004884265556
 112    -4.2745484714484e-16
 113    -0.050504168462493
 114     0.093985923078996
 115      -0.1424525905308
 116    -2.7778553787115e-15
 117    -0.015408989250419
 118     -0.11866826500225
 119    2.5904117763788e-15
 120     -0.24933244236949
 121     -0.27748075332093
 122    -0.015408346577546
 123    -2.4267858422669e-16
 124    0.0046002383075897
 125    0.00065682524672751
 126    3.6938178028427e-16
 127     0.024977466136759
 128     -0.21973108801847
 129       -1.529079349964
 130    5.1032893856821e-15
 131     -0.24072956150535
 132      0.23629882873603
 133    -4.7063007129313e-15
 134      -1.2333085412423
 135         4.37385638211
 136    0.0048602765895261
 137    1.4146801729941e-16
 138    0.0060671290165579
 139     0.010817243136326
 140    6.2558085931204e-16
 141    -0.069483934620527
 142      0.35177735466613
 143    -0.057102093613968
 144       3.0971972265616
 145     -0.10526017070868
 146     -0.11783756703208
 147    -0.030870656441518
 148      0.23193298630453
 149    -0.039432740445814
 150     -0.12670734062541
 151      0.10227979488593
 152      -1.2515720459859
 153     -0.07715155116113
 154      0.29181533258771
 155    -0.0078474349545189
 156      -1.5467795498474
 Sym= A
 Ene=    0.6442512355
 Spin= Alpha
 Occup=    0.00000
   1    -9.9840057661464e-16
   2    -6.7304825117807e-15
   3    3.6156877112685e-13
   4      0.33874654144571
   5    -1.1026685279811e-14
   6    1.1775829616446e-14
   7    -0.044003065210801
   8    -1.6910535040593e-13
   9    4.3399445860562e-13
  10    -7.3787381875079e-16
  11    0.0033745264181191
  12    -2.1595516229088e-15
  13    -2.1432772007463e-15
  14    -0.014502883093781
  15    -2.9603020682538e-15
  16    -4.8570500650929e-15
  17    2.4366440592743e-13
  18      0.05317098557572
  19    -4.3329056671974e-15
  20    4.2328492652804e-15
  21     -0.10359905491046
  22    -1.1228729374075e-13
  23    1.6258468537067e-13
  24    2.2904972141048e-15
  25      0.01567157419952
  26    2.6788769852168e-15
  27    1.6967426973996e-15
  28     -0.01318670832723
  29    -3.9927657671379e-15
  30    7.1517501714004e-15
  31    9.5674626120989e-14
  32     0.037864225875861
  33    3.6100150196495e-15
  34    3.9563713544087e-15
  35     0.039385947162525
  36    4.8289304153355e-14
  37    -5.9863356911592e-14
  38    1.1595325776571e-17
  39    -0.0011257765376587
  40    2.020350157561e-15
  41    1.9825402682854e-15
  42    0.0014023261117779
  43    3.1772438232997e-15
  44    -1.8983229036436e-15
  45    -5.7055094728979e-14
  46    0.0052320270798611
  47    -7.2520538342293e-15
  48    -2.3450068168417e-15
  49    -0.042290393126182
  50    2.8575446890385e-14
  51    -5.1714375180605e-14
  52    1.124133639567e-15
  53    0.0054680419003845
  54    -2.4603838109774e-15
  55    -6.6249037482556e-16
  56    -0.0030564046693717
  57    -4.8174253146255e-15
  58    1.0765331254868e-15
  59    8.8482590071139e-14
  60      0.12251993989927
  61    8.5746458496508e-15
  62    -1.374983840181e-14
  63    -0.0030327655166287
  64    8.4164849224458e-14
  65    -3.6974881620248e-16
  66    9.5248672387975e-16
  67    -0.0015855103281609
  68    -4.3984381097992e-16
  69    1.5625481241468e-15
  70    -9.2005007697508e-05
  71    1.4347615912812e-15
  72    -8.3314297851324e-15
  73    -2.1486002862531e-13
  74       0.1639606735413
  75    1.1890339739099e-14
  76    3.3671157003858e-15
  77     -0.19089211911872
  78    -8.2581355550191e-14
  79    -1.1060923588684e-14
  80    -2.2347342959439e-15
  81     0.028282794725367
  82    -3.1502655322649e-17
  83    -7.0111194825787e-17
  84     0.020997946873419
  85    -5.7994344359555e-16
  86    -6.6402328704588e-15
  87    1.7554324951819e-13
  88      0.46555033781794
  89    -9.9124632405941e-15
  90    1.1280540843757e-14
  91     -0.27353430178834
  92    8.3422421763548e-14
  93    -5.4812013036232e-14
  94    1.5351925995812e-15
  95     0.012003462638359
  96    -5.3641193395172e-16
  97    -1.2146930022959e-15
  98     0.042914901560716
  99    -4.731066900297e-16
 100    -5.9215744866932e-16
 101    -6.4514774810901e-14
 102      0.55226277001887
 103    -1.166738557485e-14
 104    -6.6692220725203e-15
 105     -0.51462656176617
 106    4.8353197144171e-15
 107    3.8269007023547e-14
 108    -1.6486072290227e-16
 109    -0.056723054284824
 110    -2.4446084548581e-16
 111    -4.4217876801061e-16
 112       0.0392414322127
 113    -4.2797064819606e-16
 114    5.6230755152064e-15
 115    -2.2689074694403e-13
 116       0.5356590485285
 117    3.9564749597145e-15
 118    -1.1202889679289e-14
 119     -0.32965832247385
 120    7.0165068323545e-14
 121    1.2077932405706e-13
 122    -8.9556001170392e-16
 123    -0.0057797848397557
 124    4.2017871670254e-16
 125    7.8965056896062e-16
 126    -0.048293418907523
 127    2.1717075752586e-15
 128    -1.6912501409219e-15
 129    -3.4172481740766e-13
 130       0.2039548309811
 131    2.3887402103986e-16
 132    2.3183206474344e-15
 133     -0.26515848744031
 134    1.5157352565498e-13
 135    4.3664346474278e-13
 136    1.4207507638549e-15
 137     0.041270130586102
 138    2.7970271416263e-15
 139    9.0621166916003e-16
 140    -0.038085641737166
 141    -7.8921951810342e-15
 142    4.0928039868397e-14
 143    -9.681757613948e-15
 144    -1.9576618751494e-13
 145    1.4888287021203e-15
 146    -3.3777367842509e-16
 147    -9.1171160279034e-15
 148    4.6200565028532e-14
 149    3.5596598354272e-15
 150    6.5793610671176e-15
 151    2.3957070898242e-15
 152    -2.9753646770089e-16
 153    -4.4208239067039e-17
 154    -4.1126129282941e-14
 155    -5.6166054166589e-15
 156    1.1922929716826e-13
 Sym= A
 Ene=    0.6526823466
 Spin= Alpha
 Occup=    0.00000
   1    -0.0087160162575466
   2     -0.26366891062445
   3       5.6893359472794
   4    -2.4937176230822e-14
   5     -0.18039069967642
   6      0.12286650206107
   7    1.5007182639687e-14
   8      -2.4090186487796
   9       6.7620120538632
  10    -0.0057908563644983
  11    -3.7285469190357e-16
  12    -0.018572606798402
  13    -0.00072699051500757
  14    8.2352457409636e-16
  15    -0.061421314446698
  16     -0.11591462403672
  17       4.1927183420947
  18    -8.0888545231095e-15
  19    -0.054842196049513
  20     0.018683396018164
  21    -9.0909265805245e-15
  22      -1.8914128348087
  23       2.2248764792486
  24     0.020824205898776
  25    -1.110000387396e-15
  26     0.028384532038654
  27     0.023557955767171
  28    -6.4836400560807e-16
  29     -0.05309958551949
  30     0.056878281102367
  31       1.4353319401024
  32    -8.2793036049221e-15
  33     0.045330398704094
  34    -0.0087149340410234
  35    -2.5517352879416e-16
  36      0.44904746597921
  37      -1.2197647541266
  38    -0.0038374005774987
  39    -5.3265859335372e-16
  40     0.031240025625025
  41     0.023337963352692
  42    2.1569851014016e-15
  43     0.045112189553159
  44    -0.013320106857995
  45     -0.97314203986179
  46    -1.3475454238049e-14
  47      -0.1211982658377
  48    0.0080928714258108
  49    6.028565369129e-14
  50      0.21125727961104
  51     -0.64819490857369
  52    0.0091250799903446
  53    -1.3651337883864e-15
  54    -0.041006024538359
  55    -0.0037551223241153
  56    -2.7430943575501e-15
  57    -0.065181817324311
  58    0.0057338666382554
  59       1.5727621039892
  60    -9.627165237834e-15
  61      0.11185461213242
  62     -0.21966633736574
  63    -3.4359441454216e-14
  64       1.3839369505889
  65      0.25642452871481
  66     0.017901678328197
  67    -1.4423073147783e-16
  68    -0.0068766237045273
  69     0.025405631318855
  70    8.9820133387683e-16
  71    0.0075738339974392
  72     -0.21304141584082
  73      -2.0516707286246
  74    -3.7242251561487e-15
  75      0.11882787727359
  76     0.018242872132155
  77    1.1479318462705e-14
  78     -0.91862713092701
  79      0.82335210967705
  80    -0.030805029832634
  81    -1.9904977043933e-15
  82    -0.0062703389375437
  83     0.016708299455763
  84    -6.5010234121362e-16
  85    -0.0076488387331616
  86     -0.29637363770831
  87       1.9002215141861
  88    -1.6735111454578e-14
  89     -0.16960757541893
  90      0.14522604506542
  91    2.6270157141918e-15
  92       1.2081906170291
  93      0.17699978736601
  94    0.0035421432753059
  95    -1.1047094999706e-15
  96    -0.014301803923101
  97     0.013326684556244
  98    -1.740133613162e-15
  99    -0.010893304594439
 100     -0.17062231875103
 101      -1.2352893130577
 102    -3.737388735028e-14
 103    -0.081377365642379
 104    0.0031965673905873
 105    3.5895855408215e-14
 106      0.25994329350968
 107      0.76148730176747
 108    -0.014584884547513
 109    2.6604045410734e-15
 110    -0.0017148111595828
 111    0.0075955176208268
 112    -3.6906672968446e-15
 113     0.012943131384279
 114    -0.023568976999381
 115      -4.0791436027324
 116    -4.239245761367e-14
 117     0.049547745340627
 118    -0.076669581268981
 119    2.8163875475555e-14
 120       1.4815599419423
 121       2.1232320853726
 122    -0.0062301772246117
 123    3.1720739463909e-16
 124    0.0034328357270259
 125     0.016814623652697
 126    3.6376233832138e-15
 127    0.0064796323898969
 128     -0.14404257006527
 129       -4.506664402167
 130    -1.0435170584366e-14
 131     0.011758962902544
 132     0.064826194687452
 133    1.5763664756091e-14
 134       2.3606602689507
 135       7.2628938808511
 136    0.0018897715859564
 137    -3.2591104430153e-15
 138     0.030884275331258
 139      0.04432788497979
 140    1.8643336357745e-15
 141     -0.13818004514839
 142       0.6151625237943
 143     -0.15784274113648
 144      -3.2737081690028
 145    0.0011996967277048
 146     0.041619642235922
 147     -0.11942049489436
 148      0.71571089780153
 149    -0.025173724066936
 150     0.050743735988961
 151    -0.024123031196126
 152    -0.030261112291825
 153     0.021122324521149
 154     -0.82828688768906
 155     -0.11100305694985
 156       2.0399287094883
 Sym= A
 Ene=    0.6697976665
 Spin= Alpha
 Occup=    0.00000
   1    -0.0098433176256843
   2      0.15137759832492
   3      -1.3807048235436
   4    -2.7831671753969e-15
   5    -0.050798302436021
   6     0.063177303403989
   7    2.5625107228389e-15
   8      -0.7809621520582
   9    -0.094744640273128
  10    -0.0080294156652472
  11    -1.4331072447555e-18
  12    -0.014112599742785
  13    -0.025000695948696
  14    3.3775229768813e-16
  15     0.031017971459941
  16    0.0071257696904638
  17      -0.9937306121735
  18    1.3968087618955e-15
  19     0.007158911753372
  20     0.024969570682169
  21    -2.0631981736364e-15
  22      0.45159810860987
  23        1.535877527335
  24     0.018123359695331
  25    2.4021527869284e-17
  26     0.011164579840239
  27    0.0015012264507478
  28    9.6539224805288e-16
  29    -0.0032626142678605
  30     0.047049660841754
  31     0.016178142838257
  32    8.3055528825721e-15
  33      0.10830603704964
  34      0.13404677483374
  35    -4.0510383525757e-15
  36       1.3371483978578
  37       1.3109252234358
  38     0.003883806380271
  39    9.2663820144453e-16
  40     0.001266457684639
  41     -0.00536819330511
  42    5.723505506376e-16
  43     0.010346220266076
  44     0.017995997318577
  45    -0.058546299000229
  46    1.1532690198316e-14
  47      0.10619255949647
  48    -0.092752593486913
  49    -2.4014688980674e-14
  50       1.4149057551326
  51      -1.0347373061195
  52     0.021022275894276
  53    2.4247374694301e-16
  54     0.010348574014277
  55    0.00076302851365127
  56    1.0090996213236e-15
  57    -0.010507051175596
  58      0.12734351972158
  59     -0.86210064705559
  60    9.0196692014812e-15
  61     0.050369817225244
  62    -0.074631468428415
  63    7.9499156812297e-16
  64     -0.44394913986888
  65      -2.0464686895834
  66    -0.020786684641832
  67    4.8472104230899e-16
  68    0.0035641127881454
  69    -0.014069609463811
  70    -7.5124929046667e-16
  71     0.016758724856847
  72      0.27169763043168
  73      -2.6299050625042
  74    3.663628951364e-16
  75     0.024772614450675
  76     0.027511017666774
  77    -4.8710914550156e-15
  78      -1.5352445419349
  79      -3.4763699207203
  80    -0.0033839279172338
  81    -7.2809585200954e-16
  82     -0.01700292947714
  83    -0.019791580646741
  84    -1.112275195656e-15
  85     0.045143356704795
  86     0.049826260928315
  87       1.5738506816955
  88    -5.6111462543218e-15
  89    -0.099543875062232
  90     -0.11796071718611
  91    5.6051307822348e-15
  92      -0.1121027173726
  93      -2.9076839023772
  94     0.035896612567326
  95    -5.7148021348931e-16
  96     0.037082416453392
  97    -0.052158375703821
  98    -5.0336393725004e-16
  99    -0.043346608778187
 100     -0.10296373945056
 101       1.3433067701802
 102    -4.7870247916115e-15
 103     -0.35760672710712
 104      -0.2241354853257
 105    1.9067129547556e-15
 106     -0.95464843887385
 107      -1.5174854948092
 108     0.008771414759755
 109    1.5710659013202e-15
 110    -0.020806951545577
 111     0.066339679636943
 112    -6.8443304138077e-16
 113    -0.093943509323548
 114     -0.28636859573706
 115       4.2575722813284
 116    -1.1298887329681e-14
 117      0.37791803020683
 118     -0.13044960009614
 119    1.0804416674251e-14
 120      -2.8914667820315
 121      -2.1473982570912
 122    -0.025997886082275
 123    4.4261215542629e-16
 124    0.0057774073902144
 125     0.044799569588548
 126    8.3541549318277e-16
 127     0.027807978561305
 128     -0.11878447690364
 129      -3.2522918111884
 130    -7.7703184198576e-15
 131     -0.23776699588945
 132     -0.12133519452449
 133    7.5317380850982e-15
 134     -0.74687162837355
 135      -3.3582447032551
 136    -0.017606498811449
 137    -1.4715155317448e-15
 138    -0.00035956838766524
 139    0.0039399013000806
 140    9.6476948015708e-16
 141    -0.025166840477324
 142    -0.080221246087529
 143     0.022646424628416
 144      0.75803153648124
 145     0.065283042672158
 146     -0.20897596252347
 147     0.077467567812839
 148     -0.18295642498425
 149      0.19616478413966
 150     0.046205232989888
 151    -0.084415483530155
 152      0.38816919923614
 153     -0.18377340085931
 154       1.4302711400215
 155     0.057112842774949
 156     -0.47777441177363
 Sym= A
 Ene=    0.7008900563
 Spin= Alpha
 Occup=    0.00000
   1     0.071855153966494
   2     0.074271377282121
   3      -4.4723288352849
   4    2.3561644917837e-14
   5     -0.33644773624365
   6    -0.088730180574564
   7    -2.0789587829655e-14
   8      0.62185736779462
   9      -1.4362956224077
  10     0.013838370829417
  11    1.7051888224301e-15
  12     -0.02597007915775
  13    -0.0023187620856533
  14    -5.4162910292927e-17
  15    -0.053111616379035
  16      0.14001627628435
  17      0.03038179920491
  18    1.4017214066405e-14
  19     -0.12766210063918
  20     0.047638284726361
  21    -9.3546837111195e-15
  22     -0.52141235148042
  23      0.66901681525242
  24    -0.0048054622016354
  25    -6.6973384526169e-16
  26    -0.0085124928951201
  27     0.013718956048695
  28    -1.4044674213261e-15
  29     0.046789476649548
  30    0.0076144809427731
  31      -1.1176119039806
  32    -1.4245279109363e-15
  33     0.083304693638141
  34    -0.034643129304636
  35    5.0967525283942e-15
  36       1.5771330833276
  37     -0.34327272762308
  38    0.0023408184575259
  39    9.3534011944857e-16
  40     0.012807307408038
  41    -0.014932114260861
  42    1.8476433673852e-15
  43    -0.055047804229921
  44      0.22589559516825
  45      0.83199969767842
  46    -3.0599893687643e-15
  47     0.090635144367119
  48      0.14751283607122
  49    -4.7898014962771e-16
  50       1.5675289991799
  51     0.072193045215389
  52    -0.011753427896183
  53    -2.7955108743384e-15
  54    -0.017907008119366
  55    0.0044900292888831
  56    8.9184223576274e-16
  57     0.041749154845467
  58      0.13009652728887
  59      0.42669014078141
  60    -1.7859090607663e-14
  61    -0.036175387875669
  62    -0.024158806860161
  63    1.3460047759465e-14
  64     0.033397023950847
  65      -0.5725526405789
  66     0.043586750853883
  67    1.0929632581366e-15
  68    -0.010963931114395
  69    -0.015085474228866
  70    -5.1044171129603e-16
  71     -0.07795975323615
  72      0.31794519552892
  73       6.4489185530875
  74    -1.4363988759461e-14
  75     -0.18459157403158
  76    0.0043993636815406
  77    1.7877084356944e-14
  78       0.5596343833732
  79       3.2671578165002
  80    -0.0029952749253347
  81    -1.1850243159102e-15
  82    0.0071161904840433
  83    -0.058877312566749
  84    8.8559607140513e-16
  85     0.084225083470843
  86      0.11486863192673
  87      -4.2712822615764
  88    -2.337363725173e-14
  89    -0.065221009606252
  90    -0.017094858556348
  91    3.1538676566455e-14
  92     -0.42434494111831
  93       4.7227897047748
  94    0.0021672537981355
  95    8.8033803239911e-17
  96    0.0084981462484485
  97    -0.048994912957217
  98    -1.2673992817414e-15
  99     0.019191580332957
 100      0.02767312805108
 101      -1.3036264281309
 102    -2.0382283045459e-14
 103    -0.044571412969691
 104    -0.092646470807055
 105    3.3536419346108e-14
 106       1.3329722542707
 107       1.3019121510247
 108     0.003396966905888
 109    1.0248127894404e-15
 110    -0.023437156253462
 111    -0.0066796908944528
 112    2.3137150168189e-15
 113     0.047291837527798
 114     -0.25051130691907
 115     -0.50965685204591
 116    3.0393656006713e-14
 117    -0.074472888217721
 118      0.16392846602587
 119    -2.3151910855662e-14
 120      0.69009958218588
 121       0.2989717440659
 122     0.018308695871676
 123    -8.7093596282765e-16
 124    -0.0092993990053951
 125     0.013408833886019
 126    -1.3336278618114e-15
 127    -0.075177752522284
 128      0.13479941905546
 129       4.3770847556729
 130    3.384957060806e-14
 131     -0.20970524329718
 132     0.039628153765479
 133    -5.6842863201745e-14
 134     -0.26244846458488
 135      -1.6011710540363
 136    -0.010975566320452
 137    -9.3681958946932e-16
 138     0.013249429696157
 139    0.0033477715293927
 140    1.9740336335508e-15
 141     -0.11848494021826
 142      0.25791640560231
 143     0.033256358970901
 144     -0.72403640911995
 145    -0.083168936720367
 146       0.5708565462078
 147     0.074543764624154
 148      0.15493721470622
 149     0.055743816274169
 150     -0.34181279886557
 151    -0.079168765027966
 152      -0.3595218817271
 153    0.0028392777676469
 154     -0.48755244927613
 155     0.048279455425667
 156     0.069364383214376
 Sym= A
 Ene=    0.7064688777
 Spin= Alpha
 Occup=    0.00000
   1    -0.025062736573289
   2      0.18525695628115
   3        4.733592251264
   4    8.2668981012933e-15
   5      0.25063159617693
   6       0.1270022516973
   7    -7.9969924383546e-15
   8     -0.38233777694542
   9       2.8328177026024
  10     0.010221054519244
  11    -2.6083691151207e-16
  12    -0.0083129554684415
  13    -0.009567243239377
  14    1.6932436813907e-15
  15      0.01413338578334
  16     0.090716810685212
  17      0.36262737857551
  18    5.2442771336971e-15
  19     0.031672016803494
  20      0.16431581082811
  21    -2.3646267397258e-15
  22     -0.50219559191577
  23     0.014914697126995
  24     0.018120128862255
  25    1.2218778070395e-15
  26    0.0085434884318827
  27    -0.010656951750388
  28    -1.3387436443944e-15
  29    -0.014477525339623
  30     0.072337916392298
  31     -0.15714315444242
  32    3.0896231171902e-15
  33    -0.016172514966643
  34     0.078644378206813
  35    -7.603455708121e-15
  36     -0.17594768306514
  37      0.28580747458166
  38    -0.0093050134662047
  39    1.0402543511003e-15
  40    -0.023628162315436
  41    -0.0016465250308439
  42    -1.2131036762523e-15
  43    -0.0032622255857034
  44     0.021279375323802
  45      -0.2303500109876
  46    1.0378283362558e-16
  47    0.0050310975037658
  48    -0.015962869736419
  49    -1.2033789661405e-14
  50     -0.30450604084186
  51    -0.076847152953003
  52    -0.011160135426745
  53    -1.753017780832e-15
  54     0.025396323052844
  55    -0.0023870357761277
  56    2.0098402007437e-15
  57    -0.012778754649984
  58     0.046268976904105
  59      0.85393240799835
  60    -3.3878268356935e-14
  61     -0.03729280482309
  62        0.173703925618
  63    3.339548804724e-14
  64      0.68726028766601
  65      0.27910127584305
  66    -0.0035817992331551
  67    -3.1614634970105e-16
  68    0.0030444045863869
  69    -0.0044632744127045
  70    -2.1187264896374e-15
  71    -0.024832125426374
  72      0.13105322395084
  73       2.2295804709133
  74    -4.3034987759461e-14
  75    -0.0036455501367365
  76      0.11590053704069
  77    2.5995006862628e-14
  78      0.29446334352706
  79       2.1890384138616
  80     0.029506004417935
  81    -3.3940687891348e-15
  82     0.019055687035294
  83     0.017644466550181
  84    -1.3961743320177e-15
  85     0.013486446551117
  86     -0.19793648198603
  87      -0.1218458817243
  88    -5.9488982917387e-14
  89      -0.1786154166407
  90     -0.18955231329692
  91    8.4473458684774e-14
  92       1.1423901563793
  93       3.4877029677131
  94     0.028401308669069
  95    3.7591912493662e-15
  96    0.0084649634373747
  97     0.041446119421388
  98    -4.7079859665921e-15
  99    -0.038366589320469
 100     -0.15826450376636
 101      -2.9928213569134
 102    -3.5184488663527e-15
 103     0.077445751745608
 104     -0.15314215730976
 105    -8.6978098850987e-16
 106       1.3290955928178
 107       2.8551997465804
 108    -0.053563046901015
 109    1.6312328842504e-15
 110     -0.00634174502325
 111     0.081210783092765
 112    5.3605672530921e-15
 113     0.058801882074141
 114    -0.092117082937222
 115      -5.0663853494406
 116    6.8263901653471e-14
 117      0.38406168102188
 118     -0.32060809750314
 119    -6.7921605378982e-14
 120       2.5308579154698
 121       2.8190178891942
 122    -0.016047878557367
 123    -2.5054888021589e-15
 124    0.0064394593728936
 125    -0.0015312760250462
 126    -4.1038994301186e-15
 127    -0.016872084874368
 128      -0.0449803493042
 129       1.1532757797267
 130    1.7707748226619e-14
 131      0.27213309754836
 132    -0.036873695974651
 133    -2.9707443455999e-14
 134      0.74350681514204
 135       6.9982577241962
 136     0.039774038757028
 137    4.6357137455736e-15
 138    -0.012071818120275
 139    0.0097559324807901
 140    5.437442601388e-15
 141     0.079570679913951
 142      0.35165541047893
 143     0.061770793154333
 144      0.73421102659725
 145     0.052987817727777
 146     -0.13520544516191
 147     0.040997383852298
 148      0.24959260386345
 149    -0.090147384597179
 150      0.50740964853609
 151     -0.25974876059626
 152     -0.58211319262187
 153    0.0054228702450086
 154       -1.542712365509
 155     0.047349377780708
 156     -0.45910461191775
 Sym= A
 Ene=     0.720790685
 Spin= Alpha
 Occup=    0.00000
   1    -1.6287271033882e-15
   2    -8.362055946171e-15
   3    -1.620261952557e-13
   4     0.094441142700987
   5    -1.2762052385648e-14
   6    -1.7696050974692e-14
   7    -0.093930208847613
   8    8.9394642995532e-15
   9    -1.3746699732062e-13
  10    -1.7530595789891e-15
  11    0.0023547371012206
  12    8.8416809914005e-16
  13    -2.3999577696221e-15
  14    0.0069904900162073
  15    1.6329089680487e-15
  16    -3.8219721034291e-15
  17    -6.9222592861825e-15
  18     0.013287379849916
  19    -1.1608483095522e-15
  20    -1.8443923796616e-14
  21    -0.0064301937427685
  22    7.4853078138149e-14
  23    -6.2026063409692e-14
  24    1.8548722785919e-15
  25    0.0061333140132314
  26    6.309764601807e-16
  27    2.0474212241323e-16
  28    -0.010894948898363
  29    -2.4650093736661e-15
  30    -5.4059733283207e-16
  31    7.4406243069928e-14
  32    -0.073716994043017
  33    2.8939894753606e-16
  34    4.143844131995e-15
  35     0.028695536126378
  36    -1.278493135129e-13
  37    -2.9846107393844e-14
  38    2.6723462047288e-16
  39    0.0036176987117587
  40    3.5887254051568e-15
  41    1.5056002362481e-15
  42    0.00017659118151388
  43    2.890364020241e-15
  44    -4.1028574998265e-15
  45    -4.2409639161169e-14
  46    -0.091252085725764
  47    -1.8778094881994e-14
  48    8.9939407369322e-15
  49     0.059827079012707
  50    -8.4314565527116e-14
  51    8.3227349023154e-15
  52    1.1415291697402e-15
  53    -0.017888450496703
  54    -3.0294160678025e-15
  55    4.4268816369137e-16
  56     0.005374733638881
  57    -5.2700159714488e-16
  58    1.177808474011e-14
  59    -1.7437233328731e-13
  60      -0.3495245780048
  61    1.318950512539e-14
  62    -6.87630054364e-15
  63      0.23776228316362
  64    -9.1736268277812e-14
  65    2.047630838821e-14
  66    7.8666749764122e-16
  67    -0.0025679455093311
  68    -8.3823056835223e-16
  69    -6.0215837718815e-17
  70    -0.016966076791309
  71    8.5226624376796e-15
  72    -4.86095824831e-16
  73    -7.6939017775281e-13
  74     -0.39676297694095
  75    2.5170778354169e-14
  76    -2.2133678022231e-14
  77      0.30380586685365
  78    -7.3773528760417e-14
  79    -5.0025119718019e-13
  80    -2.348148003744e-15
  81    -0.028204204144405
  82    -1.0547557575757e-15
  83    -1.3027678218099e-15
  84    -0.0034310095509434
  85    -6.1449644164442e-15
  86    1.6613406059244e-14
  87    3.2393583800947e-13
  88     -0.53086604396725
  89    1.6930852186794e-14
  90    1.6148526720367e-14
  91      0.72248643869217
  92    -1.1276037104051e-13
  93    -7.6272440049231e-13
  94    -3.491217324672e-15
  95     0.025948920754713
  96    -3.1643059695717e-15
  97    -2.6030243844662e-15
  98    -0.042076510691906
  99    1.001429087615e-15
 100    2.427859359824e-15
 101    4.5093787122855e-13
 102     -0.10360827119173
 103    -1.1594381721787e-14
 104    2.1319518188086e-14
 105      0.12760235715495
 106    -2.4855513583498e-13
 107    -4.3106633928606e-13
 108    5.5586059679548e-15
 109     0.014366610047883
 110    1.8970086926101e-15
 111    -5.6921772683638e-15
 112      0.05379810393718
 113    -9.5647454158303e-15
 114    8.6920892717632e-15
 115    5.8101467436591e-13
 116      0.63188710304229
 117    -2.7169744186845e-14
 118    2.6661392914857e-14
 119     -0.62457056479512
 120    -3.3378979333103e-13
 121    -3.1466494729567e-13
 122    5.4480659420536e-16
 123     -0.02071745308771
 124    3.4403475065113e-16
 125    5.4000910886373e-16
 126    -0.033119025690887
 127    5.7012260696787e-15
 128    -1.6539094993648e-14
 129    -4.6487769392775e-13
 130      0.24240906996636
 131    -1.7443150142242e-14
 132    1.0583971716971e-16
 133     -0.41451148725208
 134    -5.5439765819329e-14
 135    -5.9036055340723e-13
 136    -5.750316449938e-15
 137      0.04089222081878
 138    1.5008541279108e-15
 139    -7.9947120098286e-16
 140     0.048464009393563
 141    -4.4206485459486e-15
 142    -4.2597850436484e-14
 143    -1.9977225013583e-14
 144    -1.7943665965119e-14
 145    -8.3705173644838e-15
 146    -1.655226841931e-14
 147    -6.7010493993913e-15
 148    -3.1779513324445e-14
 149    1.5381658673388e-14
 150    -4.3741235492779e-14
 151    3.1449023915671e-14
 152    9.8518949340616e-14
 153    2.032718397257e-15
 154    1.9631650664781e-13
 155    -1.6870118725077e-14
 156    5.983837690577e-14
 Sym= A
 Ene=    0.7227890008
 Spin= Alpha
 Occup=    0.00000
   1     0.057326277522692
   2    -0.090339839957846
   3      0.73407559564697
   4    -9.1237915108975e-15
   5      0.19831590554669
   6      0.23568094412676
   7    -2.2627773038154e-15
   8      -1.0659974230245
   9        4.013631030905
  10     0.027792359641677
  11    -1.1222071902095e-16
  12    0.0080306822479241
  13    0.00069813259639666
  14    1.3000164231961e-15
  15    -0.051914421005313
  16     0.015529430128492
  17       2.4378988694036
  18    -1.8003458419408e-14
  19    -0.026381391457953
  20      0.18428927698621
  21    2.0124973244502e-14
  22      -1.8584722580308
  23       1.8115048548227
  24    -0.002171213195431
  25    -2.180047169772e-16
  26    0.0038213258158355
  27     0.003508383950344
  28    1.3314563716391e-15
  29     0.052779064972908
  30    -0.040660004717147
  31       -1.883146568358
  32    2.3057945018929e-15
  33       0.1039914253286
  34    -0.043447637974091
  35    1.9612774443176e-15
  36       2.6030481446528
  37     -0.59249832174384
  38    0.0042515773909838
  39    -1.1735670618895e-15
  40    -0.019562212926473
  41    -0.0035128041603679
  42    9.3612340175517e-16
  43    -0.040416168710199
  44    -0.041130324342484
  45       2.0366233920809
  46    1.3239022778265e-14
  47      0.17450131236415
  48     -0.12617613242082
  49    -3.0211873906225e-14
  50       2.4331661822696
  51      0.47294980917501
  52     0.013843992995305
  53    -2.6337872543757e-16
  54    0.0015230006470229
  55    0.0010898553044882
  56    9.8402224664688e-16
  57      0.04479107431233
  58     -0.20942723621669
  59      -1.8518143537799
  60    -2.1041846045522e-15
  61     -0.11325057222475
  62       -0.284040204008
  63    7.4790728054682e-15
  64      -1.5458397169758
  65      -1.7227381857089
  66    -0.030979075075111
  67    7.8812330215191e-16
  68     0.021721676449877
  69    -0.0043449774592154
  70    -5.5235476267611e-16
  71    -0.072268003441525
  72     -0.30092608316552
  73      0.13715890709748
  74    -1.9952195712258e-14
  75    -0.038301938635118
  76     -0.15965871494457
  77    1.5203932732624e-14
  78     -0.66651926934256
  79       -3.420018467431
  80    -0.032470384226018
  81    -1.4607363084771e-15
  82    -0.015370266567942
  83     0.070141839417158
  84    -1.833530102734e-15
  85     -0.02885187533977
  86     -0.30566345654388
  87       3.3900404405055
  88    -2.5228809177521e-14
  89      0.11911039182618
  90      0.22277797490347
  91    3.1582360404845e-14
  92      0.57197231786104
  93      -1.8951650916396
  94    0.00042844255539687
  95    2.4220042703622e-15
  96     0.001432226113172
  97     0.051190998188106
  98    -2.5886570616129e-15
  99    0.0048731391814369
 100     0.065398438389144
 101    -0.096317330608163
 102    1.8416255005907e-14
 103      0.10394557245956
 104      0.10032847198966
 105    -3.0043185487083e-14
 106     -0.26561256124744
 107     0.035864593276097
 108    -0.010818063546133
 109    7.112413261536e-16
 110      0.02856596410736
 111    -0.023573107060039
 112    2.1260798195548e-15
 113    -0.0039927921694299
 114      0.31657090850848
 115      -1.4632271583879
 116    2.8164819642001e-14
 117    -0.087449201109067
 118     -0.11548407184232
 119    -3.06322842859e-14
 120      0.66739089941279
 121       0.5875658192524
 122    0.00077841141938799
 123    -1.0209438663102e-16
 124    -0.0041923055362289
 125    -0.019605421051162
 126    -1.6099967558552e-15
 127     0.015341147145508
 128      0.21734788894661
 129      -3.2063961923504
 130    -2.2364045620554e-14
 131      0.21207125716491
 132     -0.17457643577764
 133    2.9145522835232e-14
 134      0.56757771030276
 135       3.0063860081889
 136     0.018025621699504
 137    3.9161892876305e-15
 138    0.0023759994403862
 139    -0.0086545203043679
 140    2.5390110932629e-15
 141    -0.040905696305709
 142      0.69920481389298
 143      0.13976684603194
 144      -1.1295426592053
 145     0.030339137434255
 146      0.60696288073347
 147      0.10857773333735
 148      -0.7085920865132
 149     -0.14835883123764
 150      0.37495265614595
 151     0.036186186178344
 152     0.088980058376836
 153     0.022608026588329
 154     -0.17766642956928
 155      0.14938290411157
 156    -0.027923086997009
 Sym= A
 Ene=    0.7350235365
 Spin= Alpha
 Occup=    0.00000
   1    -1.1816707595338e-15
   2    -1.0536960971205e-14
   3    8.8825403661361e-14
   4      0.40838551943792
   5    1.1961278615001e-14
   6    7.8825563133026e-15
   7     -0.25017638716976
   8    -6.3400969017879e-14
   9    -6.1860691338117e-14
  10    1.4959380403762e-15
  11      0.02765574619582
  12    9.0472230393854e-16
  13    1.5773808284548e-15
  14    -0.013113721986038
  15    3.5127240969064e-15
  16    -5.5013364129137e-15
  17    -1.2804321753051e-13
  18       0.3974655669166
  19    1.3791272028065e-14
  20    1.5927169047478e-14
  21     -0.27097110888495
  22    6.0926588680415e-14
  23    3.3164506790592e-14
  24    -3.2225566686277e-16
  25    -0.0010205417879569
  26    3.2437959551436e-16
  27    -2.3814992178463e-16
  28    -0.0099798855231602
  29    -3.3825725874008e-15
  30    -1.2860457939045e-15
  31    9.7180224691064e-14
  32      0.13860078952177
  33    7.5703083745448e-15
  34    1.6731112880359e-15
  35    -0.053321915285837
  36    -1.3223299303698e-14
  37    1.1361619908787e-13
  38    -1.3856821525579e-15
  39     0.017113216636833
  40    -2.735423407983e-15
  41    1.7705390643708e-15
  42    0.0032376621303045
  43    4.7198973737871e-15
  44    -2.5962524320483e-14
  45    -1.0566472749293e-13
  46      0.22553454287722
  47    3.1564574935454e-15
  48    -1.8683799743431e-14
  49     -0.15089734508445
  50    -8.8347834788238e-15
  51    -1.1551401877791e-13
  52    1.0891809837263e-15
  53    0.0090539000384315
  54    2.7262193855513e-15
  55    -1.6315670565287e-17
  56    -0.0041299702254189
  57    -3.6926394764973e-15
  58    -3.635834161202e-14
  59    1.983447948444e-13
  60       0.2737534982154
  61    -8.5004848674851e-15
  62    -1.8674396052421e-14
  63      -0.2078253180854
  64    1.0761775394912e-13
  65    -3.9528129076565e-14
  66    -3.337626632623e-15
  67    0.00037221892959607
  68    1.4798769106268e-15
  69    1.9726641176661e-15
  70    0.0084641314450539
  71    -3.0436787793955e-16
  72    -3.959861175957e-14
  73    2.3226638179508e-14
  74      0.26291115948828
  75    -9.7368970357734e-15
  76    1.115957817819e-14
  77      -0.1590498702981
  78    -3.8223458220608e-14
  79    1.1426916334403e-13
  80    -1.6648775813023e-15
  81    -0.0061503688646594
  82    -2.587427422496e-15
  83    4.8696100766346e-15
  84    0.0087524678250781
  85    -1.2255901815971e-15
  86    -4.6038757430021e-15
  87    -4.5647901682618e-14
  88    -0.058834217203803
  89    4.7101596298039e-15
  90    1.1625364095363e-14
  91     0.090508884467464
  92    5.365629343304e-14
  93    6.6384092000139e-14
  94    1.1905631885511e-15
  95    -0.051907869061835
  96    1.5070707809785e-15
  97    2.3981464260518e-15
  98    -0.0082444188710676
  99    8.1002961418056e-16
 100    1.5277615438456e-14
 101    -4.9988945898025e-14
 102     -0.56679853671969
 103    5.5225734447964e-15
 104    1.8507071999338e-15
 105      0.83790656588103
 106    2.3142701742897e-14
 107    2.779776430931e-14
 108    -1.1090749439487e-15
 109     0.029812271137689
 110    1.8501690620556e-15
 111    -2.3985522704768e-15
 112    -0.0034874145030019
 113    4.1654825128064e-16
 114    2.2071727202651e-14
 115    -8.8493129496711e-14
 116    -0.023704721019319
 117    -8.9681708910202e-15
 118    -8.3610234000525e-15
 119     0.052287313743066
 120    5.038252502676e-14
 121    4.2035068888156e-14
 122    -3.4419481576156e-16
 123    -0.0016167873687401
 124    -1.2317830527056e-15
 125    -1.7048885990145e-15
 126     0.012380829387533
 127    1.5100638802763e-15
 128    8.1893542377942e-15
 129    4.6972380093925e-14
 130      0.47210337336551
 131    1.0765056696792e-14
 132    -7.8371190500378e-15
 133     -0.75322953806446
 134    4.0523365167963e-14
 135    4.8772164957712e-14
 136    3.0275175687814e-15
 137    -0.068982586700478
 138    -4.4657479267174e-16
 139    -1.2319335562261e-15
 140     0.005064567682265
 141    9.0830398780075e-15
 142    -1.6005800450525e-14
 143    -3.1944548092913e-16
 144    5.3759577817007e-14
 145    1.1079435273491e-14
 146    -5.9305774181147e-14
 147    -5.9984199497492e-15
 148    2.3008733642832e-14
 149    -1.109113292151e-14
 150    2.8783683756391e-14
 151    9.9073567594369e-16
 152    3.4760646727102e-15
 153    -1.7476509640692e-16
 154    -1.8251925002784e-14
 155    -2.7859868283746e-15
 156    -5.7319196004106e-15
 Sym= A
 Ene=     0.758070317
 Spin= Alpha
 Occup=    0.00000
   1    -0.022421176249671
   2     -0.37779554733675
   3     -0.98776485431562
   4    -2.0245778276781e-14
   5     -0.02424472894844
   6      0.15315740075938
   7    2.5725531493785e-15
   8      0.13437866556303
   9      -2.7916435621993
  10     -0.01833672190369
  11    -1.0521081450501e-15
  12     0.014168263803958
  13     0.065376540226709
  14    6.0154567281986e-16
  15     0.034196614227737
  16     -0.44836100769883
  17      -1.7916574507294
  18    -3.8540334947597e-14
  19      0.20539350413736
  20     0.025913993293124
  21    3.2240379891271e-14
  22       1.1289524514777
  23     0.097368990231815
  24    -0.058399216409328
  25    -7.1835744910361e-17
  26    0.0021012114530335
  27      0.01044604084053
  28    3.4092506399667e-15
  29    -0.037555780385329
  30     -0.36025612193594
  31       1.7966375585089
  32    -1.2749051809558e-14
  33     0.070536037280851
  34     -0.14383806566422
  35    1.5418221263678e-14
  36     -0.22576617432674
  37       1.1795714289126
  38     -0.00223019219647
  39    -2.1195197627131e-15
  40    -0.028999066155153
  41     0.036621485169068
  42    -2.6781140639152e-16
  43     0.040583171072343
  44     -0.39001139647287
  45      -1.2245877138351
  46    2.8869294145863e-14
  47    -0.082884482088701
  48     -0.16742437510946
  49    -2.8837437749668e-14
  50     -0.13614212098096
  51      -1.1169957428223
  52    -0.00011904663243626
  53    3.3891712012998e-15
  54     0.034972770449508
  55     0.031440453291318
  56    -1.6394055724675e-15
  57     -0.02877413691285
  58     -0.44330197164903
  59       2.9402114658416
  60    2.7533099491497e-14
  61     -0.15369836614682
  62    -0.073277824470168
  63    -2.9068332545319e-14
  64       1.6404390167815
  65    -0.066996343020809
  66    -0.039307820214517
  67    -2.1716269683785e-15
  68    -0.0014420829995663
  69     0.016662740743085
  70    1.3012695750788e-15
  71    -0.013779399622074
  72      -0.3995861268173
  73       3.9598487297337
  74    -1.369795975696e-14
  75     -0.30795742044551
  76        0.314418489178
  77    8.9216256504383e-15
  78      0.25031288705644
  79       3.9625729854182
  80    -0.0092966850308338
  81    -3.2087640271693e-15
  82    -0.032820727297513
  83     0.025914906756865
  84    -1.4745061838248e-15
  85      0.05147120327017
  86      0.12889628039417
  87      -3.7185462466545
  88    -3.3136006220023e-14
  89    -0.013285613301284
  90     0.015702823040649
  91    3.2101773084442e-14
  92     0.087809114224575
  93       4.2372580772521
  94      0.02593583623203
  95    1.658281020201e-15
  96     0.051050430994058
  97    -0.025344103498218
  98    -3.4385557219154e-15
  99     0.039941056129106
 100       0.2072463361127
 101      -2.3098461423009
 102    1.2624233393599e-14
 103    -0.044360834726975
 104     -0.17664431814424
 105    -2.0859954788463e-14
 106      0.66898834647532
 107       1.9422031665262
 108    0.0038289199566424
 109    2.2758633443906e-15
 110    -0.016194960448982
 111    -0.020400367450782
 112    4.2551573617355e-15
 113    8.8502376558599e-05
 114    0.0062065370555614
 115      0.16249569933585
 116    6.4876097999073e-14
 117    -0.039530522961501
 118    -0.041539879801817
 119    -8.8694937668706e-14
 120      0.12888893743786
 121    -0.098047535495494
 122    -0.010093234009422
 123    -8.1276140155002e-16
 124    -0.011354490627884
 125    0.0011536620469797
 126    -2.4046227577724e-15
 127     -0.01090259734799
 128     0.051043130443182
 129       3.7264532224383
 130    -4.8909312173259e-14
 131     -0.22343154667586
 132     0.094936779953972
 133    7.7356574199293e-14
 134     -0.53403029965632
 135      -1.2587260328357
 136      0.03921781822384
 137    6.1697080470182e-15
 138    -0.023816961948614
 139    -0.0036497796408154
 140     5.48035376961e-15
 141     0.052176973149679
 142     -0.59402870551183
 143    -0.035291697272725
 144    -0.038370271637604
 145     0.096448771242228
 146      -0.5064468323156
 147    -0.0018431621908584
 148      0.44306412336374
 149     -0.03918407100194
 150    -0.040407850510208
 151     -0.02242792707803
 152     -0.69665553664788
 153      -0.1170217409146
 154    -0.066550580161217
 155    -0.058940125072137
 156      0.29398695404592
 Sym= A
 Ene=    0.7948994262
 Spin= Alpha
 Occup=    0.00000
   1    -0.065641000115521
   2      -0.2218468537049
   3       5.2654955222825
   4    -1.202046014332e-13
   5     -0.18009737870633
   6    -0.012501993709483
   7    -6.6287851399277e-14
   8      -1.9365611803141
   9       5.3154953552405
  10    -0.012081814096045
  11    -2.7870195497894e-14
  12    -0.0056042152797191
  13     0.057653323337881
  14    1.7451692415628e-14
  15    -0.045009873468821
  16    -0.041646669983649
  17       3.0913098211674
  18    -1.2208069153768e-14
  19    -0.043939358116463
  20     -0.34694503949132
  21    7.3929162802817e-14
  22      -1.5297646546141
  23       1.3629613775603
  24    -0.019297072520623
  25    -1.1513722786755e-14
  26     -0.03544288845438
  27     0.011076198344144
  28    1.0205577299295e-14
  29     0.060116831318746
  30     0.077041154432322
  31     -0.63832644200596
  32    3.6215261383954e-13
  33     -0.10025304681843
  34    -0.093444852472967
  35    -1.9675554874911e-13
  36      0.94637126443817
  37     -0.86280798018379
  38     0.011418283258744
  39    -1.1176714202424e-15
  40     0.026118898734828
  41    -0.072750621849593
  42    -3.3862531204845e-14
  43    -0.0093193322776682
  44    -0.011363550847058
  45      0.32147842711496
  46    7.3391267148963e-13
  47       0.4969645174928
  48     -0.28452730857341
  49    -6.8147167162025e-13
  50      0.20191242591385
  51      0.43793129709869
  52    -0.0010031949649817
  53    4.0288598588039e-14
  54    -0.010014761822167
  55    0.0084287493140013
  56    1.688403590546e-14
  57    -0.052333427758204
  58     0.036357644768515
  59      -1.2904390161329
  60    5.5008682595703e-13
  61      0.13778876693585
  62      0.26665026266543
  63    -4.3813804045748e-13
  64     -0.29595770401345
  65      -1.3017239640882
  66    -0.043685816368791
  67    -2.5233004773915e-14
  68    0.0027987607396199
  69      0.06559028978891
  70    2.8299855089354e-14
  71     0.056964818360895
  72     -0.17442168653269
  73      -1.7907462303555
  74    1.0121083935121e-14
  75     -0.14299253394191
  76       0.2357250022806
  77    -2.5895523287008e-14
  78      -1.6917055100663
  79      -2.3176187164608
  80     0.017794082777022
  81    -3.8210666410338e-14
  82     0.034825472546479
  83    -0.015657614149841
  84    -2.3529898515062e-14
  85    -0.017758349349097
  86      0.01569509997453
  87       3.5211225293824
  88    -3.1610134833882e-13
  89    -0.085249618751904
  90    -0.069616251963319
  91    2.8456472518697e-13
  92       1.7247858989509
  93     -0.39227594405337
  94     0.026007005325014
  95    4.072335140483e-15
  96     0.012159733792581
  97    0.0054895580713251
  98    -3.8799438911605e-14
  99    0.0088092360998941
 100     0.016507790045465
 101      -1.5845315697414
 102    7.4861733925553e-14
 103    -0.065017925255569
 104    -0.050542060743968
 105    -1.9514240710766e-13
 106      -0.1154442204637
 107       1.0744900347428
 108    -0.024538109441097
 109    2.3012380605699e-14
 110    -0.010344814606883
 111    -0.017129824864417
 112    2.2000398673196e-14
 113    0.0025896156278765
 114    0.0062548583071531
 115      -2.1300704586263
 116    4.6683167564808e-13
 117     -0.13970388068473
 118    -0.0049284472012491
 119    -7.5248313509804e-13
 120      0.88734665764451
 121       1.0976272316229
 122    -0.0026271271530828
 123    -4.9298094221737e-15
 124     0.005949049920048
 125    0.0054072501997515
 126    -1.0333096133965e-14
 127     0.025174763627654
 128     -0.19410307913723
 129      -4.2449991359965
 130    -5.6687316856497e-13
 131     0.017177392508067
 132      0.13727497997133
 133    9.656180309897e-13
 134       1.4934918865301
 135       4.9576521303174
 136     0.015690177442386
 137    4.0737759813036e-14
 138     0.022646181121661
 139     0.027921428499927
 140    5.4486066959907e-14
 141    -0.059225081428727
 142      0.50758685474078
 143      0.27436508962336
 144     -0.97137648189804
 145    -0.072657863233626
 146      0.22598086941486
 147     -0.24252365856158
 148      0.08157563094615
 149    -0.025041179779158
 150      0.65077690843938
 151     0.011223140932043
 152     -0.25274665197909
 153     0.015821545550795
 154     -0.48532791871423
 155      0.27834235269737
 156     -0.11614400979103
 Sym= A
 Ene=    0.8010497746
 Spin= Alpha
 Occup=    0.00000
   1    6.0700805055879e-14
   2    4.3036807079807e-13
   3    -7.6060808445044e-12
   4     -0.12461826660439
   5    1.9756410683938e-13
   6    -1.5018550161565e-13
   7    -0.033265321408187
   8    2.0198229658146e-12
   9    -8.9959475506677e-12
  10    1.3812193858573e-14
  11    -0.023906916819574
  12    1.0248322379758e-14
  13    -6.8424508247574e-14
  14     0.012509117235503
  15    1.016291019467e-13
  16    2.8673284802119e-13
  17    -6.2601043205033e-12
  18    -0.039050052180839
  19    6.9190705640891e-14
  20    4.2186289666836e-13
  21     0.074828785087104
  22    3.1841534630902e-12
  23    -1.4357839526609e-12
  24    3.2944278859442e-14
  25    -0.0081080489111157
  26     4.04995456385e-14
  27    -5.2501910546612e-14
  28     0.010275773956939
  29    -1.1199787471762e-13
  30    2.2463451325856e-13
  31    1.9304353060362e-12
  32      0.26383434324511
  33    2.0914139965592e-14
  34    2.3445927542424e-13
  35     -0.14189505589301
  36    -1.266536509916e-12
  37     2.35484630328e-12
  38    3.6562528917698e-15
  39    -0.0021214017548857
  40    -3.8167619384037e-14
  41    6.2023055547695e-14
  42    -0.025793728826668
  43    6.7156457966112e-14
  44    2.7438604889645e-13
  45    -2.1309267321025e-12
  46      0.56585114875812
  47    -5.432141983894e-13
  48    2.8875459323761e-13
  49     -0.49655341273786
  50    -4.5622580378956e-13
  51    -1.7531409992565e-12
  52    3.0533049434103e-14
  53     0.035016649111354
  54    1.1541566400283e-14
  55    -6.1828428450722e-14
  56     0.010617495812347
  57    2.3412158804912e-14
  58    1.437633404203e-13
  59    3.3821177952163e-12
  60      0.50439621199427
  61    -1.0325381589752e-13
  62    -5.4234102997238e-13
  63     -0.43326755929821
  64    1.6081728479691e-12
  65    1.4312681121977e-12
  66    6.9445393263146e-14
  67    -0.019771874347855
  68    8.0672376865896e-15
  69    -8.3840215011184e-14
  70      0.02695567755383
  71    -5.7606292861024e-14
  72    2.273332202655e-13
  73    2.4959649269668e-12
  74     0.036375577420169
  75    7.836042896325e-14
  76    -3.0018843389337e-13
  77    -0.035697795944091
  78    1.7540109356714e-12
  79    4.8241558987459e-12
  80    -2.7265898285539e-14
  81     -0.03189177973567
  82    -5.1225354522866e-14
  83    1.8276490152062e-14
  84    -0.018537613750618
  85    2.2718187497731e-14
  86    -5.7986903260698e-15
  87    -6.1486530942054e-12
  88     -0.22906977067727
  89    1.3985681902002e-13
  90    1.233648058391e-13
  91      0.16145165786303
  92    -2.183223448815e-12
  93    1.5811970859251e-12
  94    -3.8519733398442e-14
  95    -0.0017070969166431
  96    -1.3246574068414e-14
  97    2.9942858336878e-15
  98    -0.032468161025198
  99    1.1217762702742e-17
 100    -2.649877470112e-14
 101    2.3837194940083e-12
 102    0.0067626093905816
 103    7.7294469483807e-14
 104    1.3123997513491e-13
 105    -0.065522912874046
 106    6.1711584022788e-13
 107    -1.5905740398126e-12
 108    2.9390997406536e-14
 109     0.021308868024156
 110    1.7820275071764e-14
 111    -2.7555305074712e-15
 112     0.019027173902513
 113    9.9183410172436e-15
 114    1.2656366475436e-14
 115    2.7795849785434e-12
 116      0.43802927390763
 117    1.9020255715907e-14
 118    6.4650804175312e-14
 119     -0.72223478616473
 120    -8.2418341180914e-13
 121    -1.3725158055246e-12
 122    1.2492991821634e-14
 123    -0.0048500905689677
 124    -1.0714108463895e-14
 125    -4.3174210244555e-15
 126    -0.0082328049091837
 127    -4.8074617158352e-14
 128    2.4448558139315e-13
 129    7.4605521651145e-12
 130     -0.50171836848814
 131    8.4303344012101e-15
 132    -1.4869944299288e-13
 133      0.86220136038339
 134    -1.8310999877394e-12
 135    -8.0600764149065e-12
 136    -2.2148285795707e-14
 137     0.035943203336453
 138    -2.1720013720172e-14
 139    -2.7781884605428e-14
 140     0.047955142054448
 141    2.3229529139256e-13
 142    -1.0573006099056e-12
 143    -2.4406641612568e-13
 144    1.9006334302564e-12
 145    2.9081077362897e-13
 146    -7.0893853451996e-13
 147    2.7014513224056e-13
 148    4.0369336500858e-13
 149    -1.5787811093118e-14
 150    -8.3769235171645e-13
 151    1.7478305987361e-15
 152    4.4855695282629e-13
 153    -2.0040039447643e-14
 154    4.750650647799e-13
 155    -2.5512348222913e-13
 156    -1.7020803253709e-13
 Sym= A
 Ene=    0.8044303642
 Spin= Alpha
 Occup=    0.00000
   1     0.033719378041281
   2     -0.24257237248422
   3       2.0671071465623
   4    -1.2316805017361e-13
   5     0.024045790394431
   6       0.2475218704864
   7    2.9329054045746e-14
   8      0.71606805826349
   9       4.4387187629745
  10    -0.00013646817787277
  11    -1.0903799385184e-14
  12    -0.009435117686744
  13    -0.010257369014661
  14    7.3971341093077e-16
  15    -0.089486052450723
  16     -0.32339480769606
  17       4.4978343340831
  18    -1.4758546063688e-13
  19    -0.064891220482068
  20     -0.03963623860329
  21    1.4059538875204e-13
  22      -2.4393392216641
  23     -0.59652817234828
  24    -0.011488305327176
  25    -2.5882358763637e-15
  26    0.0026709029625305
  27      0.06681670356369
  28    1.4353651963865e-14
  29      0.07134150480609
  30     -0.43677526402427
  31      -2.1448515923071
  32    3.1307771166351e-14
  33      0.10817008712347
  34     -0.20567357285352
  35    1.6919641840479e-14
  36      0.06722195978668
  37      -2.5650185051032
  38    -0.025874114885582
  39    -1.1329584271674e-14
  40     0.015424268988991
  41     0.034257579459686
  42    -1.0213938791834e-14
  43    -0.091224738393817
  44     -0.36170534394041
  45       2.9615081082725
  46    2.449206713771e-13
  47    -0.062144654753579
  48     0.097410866751692
  49    -1.9681807056729e-13
  50     0.092721477167807
  51       2.2628715531574
  52    -0.044933574808939
  53    2.532478871812e-14
  54    -0.0068724356139495
  55     0.070306208692231
  56    -2.5384574461898e-15
  57     0.061214563385447
  58     -0.26232301641677
  59      -3.1576036389273
  60    3.9433095261193e-13
  61    -0.065886884961324
  62      0.34136321804063
  63    -3.6711466622908e-13
  64      -2.1030623915666
  65      0.58877977413696
  66    -0.023227613882388
  67    -1.037422747023e-14
  68    -0.016682577668393
  69      0.01179733811735
  70    2.2495644975869e-14
  71    -0.016602685000804
  72     0.005579131783477
  73       -0.808263084197
  74    9.2756721230715e-14
  75      0.22670970566017
  76    0.0019865854614331
  77    -5.9116733092689e-14
  78      0.63562857363101
  79      -3.3239951092414
  80    0.0084429941951558
  81    -1.7387841674097e-14
  82     0.019064556277636
  83    -0.0015143531897062
  84    -7.0541487826602e-15
  85    -0.0027369296413142
  86    -0.024109000705796
  87       3.1090506426454
  88    -2.7485303749926e-14
  89    -0.063690931032563
  90    -0.061380935255248
  91    -1.2945083109935e-13
  92    -0.016233378379773
  93      -2.0565861047024
  94    0.0084894826983322
  95    -1.5856149750373e-14
  96    -0.010596598418884
  97    -0.018703308716126
  98    -1.9729190488658e-14
  99    -0.017482268372362
 100    -0.027151522850589
 101     -0.62164096860122
 102    -1.9361822195784e-13
 103    -0.0046192499118251
 104     -0.11575531348153
 105    3.0834330226215e-13
 106     -0.89513248622247
 107      0.39312816178798
 108    0.0028808036402498
 109    1.9626395619373e-14
 110    -0.009320306060042
 111     0.039152081079578
 112    1.2890386792857e-14
 113    -0.022012873038149
 114    -0.080514401432913
 115     -0.24066832713674
 116    4.0969328083408e-13
 117      0.23890564049789
 118    -0.065384716493825
 119    -6.9983909263727e-13
 120     -0.44725299521301
 121     0.039071977489211
 122    -0.014357595467928
 123    -4.9952877563177e-15
 124    0.0072072446915765
 125    0.00054063752398327
 126    -4.0007607254022e-15
 127     0.026450062834936
 128    -0.034337273074956
 129      -3.9668747899931
 130    -3.205618969846e-13
 131     -0.05774117980585
 132    -0.016629496402598
 133    5.7892893870556e-13
 134    -0.027338159554214
 135       3.5108627600815
 136    -0.0016953681330688
 137    2.3738814826992e-14
 138    -0.010293381047195
 139    -0.0070563083290968
 140    3.5333471829414e-14
 141     -0.28834549188382
 142      0.86065869200552
 143     -0.11657238220022
 144       -1.371551482137
 145     -0.32976597210908
 146      0.76548529993515
 147     0.007327808931692
 148     -0.79443465162338
 149     0.094185149081818
 150     -0.03684097005084
 151    -0.014856064510509
 152     -0.24209196045504
 153    -0.00062731237789418
 154      0.20201943775702
 155     -0.12042563754267
 156      0.52971497151398
 Sym= A
 Ene=    0.8182993121
 Spin= Alpha
 Occup=    0.00000
   1    -2.0688933239582e-14
   2    1.6564572830545e-14
   3    -4.4896057259965e-14
   4      -0.2045158371248
   5    1.5341729700561e-14
   6    -4.9145426766803e-14
   7      0.21048653275611
   8    -2.7393149626646e-13
   9    -5.198524024552e-13
  10    -8.2227463331217e-15
  11    0.0061627914604841
  12    9.4378490124582e-15
  13    1.7010985836883e-14
  14    -0.018779624801533
  15    1.3138082599353e-14
  16    9.3326155407581e-14
  17    -6.2803233706555e-13
  18     -0.39162514202385
  19    1.2184497187182e-14
  20    -1.0655483204649e-13
  21      0.32840730574592
  22    3.0212368211052e-13
  23    2.0787438252851e-13
  24    -4.9761935579758e-15
  25    0.0077788882144737
  26    -5.970729413597e-15
  27    -2.103485234566e-14
  28     0.020028875550907
  29    -8.3153793260132e-15
  30    1.9964263565743e-13
  31    3.8983071544058e-13
  32     -0.29974190052679
  33    -1.0287774791261e-13
  34    1.3956664443492e-14
  35      0.16480322892763
  36    4.7144272894036e-14
  37    2.9905864809757e-13
  38    2.089071436835e-14
  39     -0.02599704811247
  40    -2.9021821154131e-16
  41    -2.6529282517869e-14
  42     0.013196591732001
  43    2.7032154956194e-14
  44    2.2346101126171e-13
  45    -7.6274105311465e-13
  46     -0.35877593714264
  47    5.3689100133835e-14
  48    -5.9815367524886e-14
  49      0.38673945088088
  50    -7.1577447399787e-14
  51    -2.8592575184373e-13
  52    2.3870418369989e-14
  53    0.0062485931881147
  54    -1.6243059365335e-15
  55    -3.6498323327456e-14
  56    -0.020199407519713
  57    -1.6777555287189e-14
  58    1.7236205781317e-13
  59    3.7752706576656e-13
  60      0.18501919398715
  61    3.641453875536e-14
  62    -1.1945408292321e-13
  63     -0.25795563459464
  64    4.1128302489687e-13
  65    -6.2857156479793e-14
  66    4.498609334934e-15
  67     0.010211529346413
  68    7.7273781492938e-15
  69    -9.5297983624226e-15
  70     0.012235913912291
  71    6.3354075483736e-15
  72    5.1941535767461e-16
  73    -5.1766311541901e-14
  74      0.18159756500869
  75    -1.0180080806058e-13
  76    1.0846847693482e-14
  77    -0.090329074324904
  78    -1.6032710791747e-13
  79    4.9476240575917e-13
  80    -8.3092208745904e-17
  81    0.0095137823505429
  82    -7.2747411333099e-15
  83    4.1149770581962e-15
  84     0.013111252291587
  85    -1.6802722739693e-15
  86    1.1925369967731e-14
  87    -3.0396908903736e-13
  88      0.37415581668323
  89    9.5238669694256e-15
  90    6.8830700212569e-15
  91     -0.75851326732593
  92    1.3518752472231e-13
  93    4.1354074953596e-13
  94    1.9305948924081e-15
  95    -0.041709302656948
  96    1.1716799122298e-14
  97    5.6043587109437e-15
  98    0.0010186088283896
  99    9.5030784779555e-15
 100    2.5317882127353e-14
 101    -1.7550039202272e-13
 102     -0.60401483757122
 103    4.6018073877987e-15
 104    -4.4658611529952e-16
 105        1.078547152173
 106    8.0348115826501e-14
 107    1.7846164979624e-13
 108    1.7792602999389e-16
 109     0.017244669923649
 110    -3.9609249126332e-16
 111    -9.7822423791759e-15
 112    0.0055098999571546
 113    9.1443273625255e-16
 114    2.478221770005e-14
 115    5.6220512114524e-14
 116      0.46550682446891
 117    -5.1764555656576e-14
 118    7.2612169097346e-15
 119     -0.84664765770226
 120    6.0873201605076e-14
 121    -1.7055855598978e-14
 122    -2.2618254884258e-16
 123    -0.0072258196366201
 124    -1.0748061688259e-15
 125    -1.1630839133117e-15
 126    0.0015511750750843
 127    -5.4274818761506e-17
 128    -3.1319151614707e-14
 129    5.2589699253735e-13
 130    -0.068288236179911
 131    -3.1495094548883e-15
 132    3.6769003883106e-14
 133      0.20285273393181
 134    1.9296424530031e-14
 135    -3.9480007301463e-13
 136    6.3015967203958e-15
 137     0.014700929673045
 138    -5.1585469017302e-15
 139    3.6781509563304e-15
 140     0.019472813777963
 141    9.4614535317211e-14
 142    -1.2210999967891e-13
 143    1.2301895943296e-13
 144    -5.9609189812207e-14
 145    1.4856637056939e-13
 146    -6.797073294333e-14
 147    2.8377812002728e-14
 148    1.870257812733e-13
 149    -3.2004393451475e-14
 150    8.3482384869559e-14
 151    1.5170453066783e-14
 152    -7.544162727363e-14
 153    -1.7309072524055e-14
 154    -1.8838999610006e-14
 155    1.0948746523024e-13
 156    -7.2926483721695e-14
 Sym= A
 Ene=    0.8266974495
 Spin= Alpha
 Occup=    0.00000
   1    0.0074220240502091
   2      0.24029680213963
   3      0.64651757801652
   4    -4.7780924806052e-14
   5     -0.17602612797969
   6     -0.16459011032282
   7    4.4119693647127e-14
   8      -1.1375286425351
   9     -0.59534327853168
  10     0.033742801357445
  11    9.212050881211e-16
  12    -0.034537808346667
  13    -0.041021974851515
  14    -3.287211273481e-15
  15     0.053634460560432
  16     0.057000124955066
  17        -2.07342601434
  18    -9.0296111242975e-14
  19    -0.012144195541597
  20      0.38355507746253
  21    6.3149564108333e-14
  22       1.4284326136263
  23       1.0088882411767
  24     0.032875501704192
  25    3.0522892522612e-15
  26    0.0022739798896358
  27    -0.0067729073767542
  28    6.1891975242619e-15
  29    -0.028300470900582
  30      -0.2773676442427
  31      0.91907816477807
  32    -8.6395648917977e-14
  33      0.24648002281447
  34      0.24857516790264
  35    6.6871377071627e-14
  36        0.565075676196
  37       2.2067978431332
  38    -0.050173097648462
  39    -3.0682262585532e-15
  40    -0.0039177984992878
  41     0.021838358458373
  42    3.2343024568479e-15
  43    -0.0069507150788094
  44     -0.47057723711201
  45     -0.39285056918137
  46    -4.8034598541719e-14
  47      0.16439962039656
  48    -0.027286636091125
  49    4.2099995281566e-14
  50      0.59289054422296
  51      -1.7099359117192
  52    -0.049885206211551
  53    2.7325916813516e-15
  54    0.0081209063663426
  55       0.0737955475252
  56    -4.5748534031566e-15
  57    -0.034964935101079
  58     -0.32897150164591
  59       1.6338017054511
  60    6.405961991971e-14
  61      0.03375155487223
  62      0.25530681165903
  63    -7.141764064058e-14
  64      0.65242558713156
  65      -1.6511695303778
  66    -0.010681227822942
  67    1.2494986543592e-15
  68    -0.0091970579507801
  69     0.061726325193063
  70    3.2558443865926e-15
  71     0.031595765009436
  72    -0.032085699521348
  73     -0.15953678382322
  74    3.0875754016786e-14
  75     0.090430230153887
  76      0.05316777556642
  77    -1.5999752775062e-14
  78      -1.4241758367403
  79      0.41129311613454
  80    0.0061414923152885
  81    -4.8542681515234e-16
  82     0.036267070734594
  83    -0.031035932551048
  84    1.5283436411947e-15
  85    -0.0038034118511672
  86    -0.021842258837975
  87     -0.43469562722311
  88    6.3352822148935e-14
  89     0.015121510705412
  90    -0.0069690602566453
  91    -1.3548446991236e-13
  92       0.3817519655214
  93      0.31631219811455
  94    -0.003759142429689
  95    -7.1449330316325e-15
  96    -0.037647552616323
  97     0.011800658550067
  98    -6.1124028254525e-16
  99    -0.015938764666007
 100     -0.13735431333411
 101       1.0526256729471
 102    -1.0500716787434e-13
 103     -0.10498494751197
 104      0.15382656406205
 105    1.8700328238311e-13
 106      0.86487017003798
 107     -0.89287286344144
 108    -0.029539916817539
 109    3.9651942144179e-15
 110     0.011353220042458
 111     -0.02209276661144
 112    1.5577198759907e-15
 113     0.028977502773949
 114    -0.036709489182279
 115      -1.3599834467678
 116    9.6690658775844e-14
 117      -0.2547333635929
 118     0.052304669725758
 119    -1.7601789649065e-13
 120        1.155538326814
 121      0.90363936429985
 122     0.020800366615993
 123    -1.3072386085935e-15
 124    0.0005742077771179
 125     0.020249293490997
 126    3.0417620777659e-16
 127    -0.026496652816911
 128     0.064283831273946
 129      0.77385607603419
 130    -3.5777524528655e-14
 131      0.17173768814421
 132    -0.084095158415087
 133    7.3478340049339e-14
 134      0.83374084549701
 135     0.057861094228263
 136    -0.019699555842616
 137    3.8545551316082e-15
 138     0.060101438602077
 139     0.011068425662005
 140    4.3847206004978e-15
 141    -0.024117114541817
 142     -0.47223416627567
 143     -0.23715976452941
 144       2.1216332653218
 145     -0.25870849330333
 146     -0.59072658475278
 147     -0.27400283747331
 148      0.21313763005073
 149    0.0025632640804691
 150     0.066124144123832
 151    -0.047302679610393
 152      0.61593974731739
 153      0.07168364563296
 154     -0.65277775881718
 155     -0.11839386692609
 156     -0.79668455251784
 Sym= A
 Ene=    0.8502574471
 Spin= Alpha
 Occup=    0.00000
   1     0.023913233378232
   2    -0.050476607514247
   3       2.0090078275916
   4    -1.4937130107213e-14
   5      0.30122579523636
   6      0.06065768159842
   7    2.8246570302435e-14
   8       1.3073363571957
   9       1.6238366942148
  10    0.0028816387407694
  11    -5.1323700505366e-15
  12    -0.014131550584138
  13    -0.039796870577921
  14    1.2093938924058e-15
  15    -0.017089081719206
  16      0.18983892575739
  17       0.6861004596812
  18    6.4548131211441e-14
  19     0.010253623311679
  20      0.10766192471998
  21    -6.8433002310703e-14
  22     -0.96464079170526
  23       -1.190968456438
  24     0.014538509017719
  25    -2.1246970470571e-15
  26     0.014725404301378
  27    -0.0015105889177809
  28    -5.7659500139692e-15
  29    0.0087584866125173
  30      0.11181152128025
  31     -0.99799813798256
  32    7.622283233287e-14
  33    -0.092708952185857
  34    0.0079418682075884
  35    -7.2667695643152e-14
  36      -0.5018518579721
  37     -0.95035253779143
  38    0.0014173208615118
  39    5.8788102553263e-15
  40    -0.0097225319383434
  41    -0.0016961449288902
  42    -9.4402847902533e-16
  43     0.001885077868971
  44    -0.027680778203168
  45      0.61759310201441
  46    -2.2445311257533e-14
  47    0.0088460650030619
  48    -0.082483867518991
  49    1.1283438311415e-14
  50     -0.55765414380394
  51      0.90647765238542
  52    0.0079425219981143
  53    -4.0156783341161e-15
  54    -8.8256155496176e-05
  55    -0.017340377840402
  56    4.5686980888078e-15
  57    -0.0016917544711481
  58     -0.15196126024595
  59     -0.41393473651945
  60    -9.5860868964817e-14
  61     0.011885282338182
  62     -0.10276699611039
  63    1.1714420801082e-13
  64     -0.42013753897713
  65       1.0420479756988
  66    -0.037058967675734
  67    2.7840766606509e-16
  68     0.014331579342163
  69     0.011404915273714
  70    -5.7009485694371e-15
  71    -0.036545497621578
  72    -0.024555437460305
  73       0.3612978559902
  74    -3.4793577588456e-16
  75      0.33951782132623
  76      0.05267979574687
  77    -7.419146647882e-15
  78       1.0263150975428
  79     -0.32831502138684
  80    -0.012000273728675
  81    8.9022374382568e-15
  82    -0.0059615236360705
  83     0.046118147696855
  84    2.1727250686254e-15
  85     0.037545322161034
  86      0.12547879492023
  87     -0.74896440975651
  88    5.0283545564062e-14
  89    0.0014997652250319
  90     0.078966195051771
  91    -1.004146712447e-13
  92      -1.3693404897104
  93     -0.62450757878459
  94     0.056463013027254
  95    -1.6285458944299e-15
  96    -0.0083741276319543
  97    -0.014562314440923
  98    2.3927410002768e-15
  99     0.045149478025313
 100     -0.26984053058754
 101     -0.98572262251143
 102    -2.8851386976137e-14
 103     -0.50486711335546
 104     -0.27924243745765
 105    6.1584730893108e-14
 106     -0.51445461906801
 107       1.5912214191206
 108     -0.03414661986933
 109    -9.8677155085372e-17
 110     0.011231574652897
 111    -0.057247800501141
 112    -1.2967626036021e-15
 113    -0.030538263749401
 114     -0.53831458166858
 115     -0.37693294787318
 116    6.3113220629122e-15
 117       -0.540883855533
 118      0.17437298685445
 119    -3.8232092885329e-14
 120       1.3695370250427
 121      0.79616531402863
 122    -0.021176878300863
 123    -1.7685477584076e-16
 124    0.0010904245873143
 125      0.11522305460965
 126    8.5387692579812e-16
 127    -0.037341854617492
 128     -0.17764705628336
 129       1.9598760247656
 130    -1.9427337785514e-14
 131    0.0035259750008089
 132    -0.038608345814891
 133    4.7843615405912e-14
 134      -1.6586974969358
 135        3.757268122447
 136    0.0043719480928472
 137    1.9352863326678e-16
 138    -0.028189375648926
 139     0.022617727802467
 140    -4.3731496872051e-16
 141    0.0049972727868666
 142       0.5201088128131
 143     0.056667121691682
 144     -0.11757783930491
 145     0.059649652260696
 146       0.1372899432415
 147    -0.010608030468508
 148     -0.20671977731674
 149      0.11457512610285
 150     -0.47627099094333
 151      0.13054035552616
 152     -0.78748608947977
 153     -0.35157866531355
 154     -0.64630116058751
 155     0.031284878345227
 156    -0.081339673501868
 Sym= A
 Ene=    0.8626370725
 Spin= Alpha
 Occup=    0.00000
   1    -0.055273344786922
   2     -0.26178862322009
   3       6.2009783290927
   4    3.9127921650079e-15
   5     -0.10046171540317
   6     0.043416701429734
   7    -7.9649800210282e-15
   8      -1.9916885059362
   9       5.8014094354373
  10    0.0026964603629044
  11    -2.2706570870156e-14
  12     0.013248674927567
  13     0.060739678369035
  14    3.4468429072598e-15
  15      -0.0102339892642
  16     -0.40909521993265
  17       3.0909003094471
  18    2.5334328730169e-13
  19      0.14832321494688
  20     0.011355296320962
  21    -2.7735546113424e-13
  22      -1.2429632234267
  23          1.3537375566
  24    -0.012222813203263
  25    -3.2101830991302e-15
  26    -0.0079895558563421
  27     0.024908067401443
  28    -1.216130463271e-14
  29    -0.0083772669033831
  30     -0.16829994455174
  31     -0.51426921991399
  32    1.2576516349817e-13
  33     0.068723882696245
  34    -0.054900847435877
  35    -1.1130362819466e-13
  36      0.67011326361925
  37     -0.15904752538131
  38    -0.023889915417247
  39    1.2061606934371e-14
  40    -0.012848217308748
  41     0.037355260721816
  42    1.0966726423374e-14
  43    -0.021560211781318
  44      0.13864200038657
  45      0.35426072459897
  46    -1.5985006143549e-13
  47     -0.23712842562036
  48       0.1631827767508
  49    2.037538773466e-13
  50       1.0646474034312
  51     0.082749121872307
  52    0.0058553248882565
  53    -1.0258569147471e-14
  54     0.029373061913105
  55    0.0010154153643291
  56    -2.6406676902295e-16
  57     0.044331089950652
  58      0.57799938585619
  59      -2.7506145830917
  60    -3.733300214215e-14
  61    -0.051043722296649
  62      0.24389811574551
  63    4.7756628075127e-14
  64     -0.87902543981896
  65      -1.5587066891897
  66     0.045885956457543
  67    4.9957114293784e-15
  68    -0.0090312293822272
  69    -0.087703325255892
  70    -1.1963675894984e-14
  71     0.037993345887616
  72      0.37763028936603
  73      -3.7566765514142
  74    6.9783807661485e-14
  75     -0.43646352712317
  76    -0.078435834840805
  77    -1.1116989581197e-13
  78      -1.3822119289242
  79      -4.1342945898554
  80     0.030099046332665
  81    7.3710128258158e-15
  82    0.0042807875049146
  83    -0.033305840730478
  84    3.7567650770317e-15
  85    -0.039768241037558
  86      0.17177720612303
  87       4.6370368436257
  88    -6.9503139824197e-16
  89    -0.056499507769443
  90    -0.068136734598648
  91    -5.7881741806208e-14
  92       1.7444874972303
  93      -2.3495394806387
  94     0.033325405552876
  95    -8.181748885245e-15
  96     0.026112006846349
  97     0.034806015822991
  98    -3.3203044065486e-15
  99    0.0075509279686762
 100    -0.079702273271543
 101     -0.74020707986036
 102    -2.1381284360343e-14
 103     -0.25326329041472
 104     0.066990370269278
 105    1.4602618834977e-14
 106     -0.11939980928072
 107      0.39778696174758
 108    -0.045337091645178
 109    6.1514786348511e-15
 110     0.018080724657326
 111    -0.041052970922561
 112    1.2005177458002e-15
 113    -0.0089632413273014
 114     0.013549297287097
 115      -2.7198314485046
 116    7.9658146239995e-14
 117     -0.37920094349032
 118    -0.014496850105699
 119    -1.9845360873763e-13
 120       1.5896489243715
 121       1.5762838426785
 122    -0.0049959113540526
 123    -2.1217229819869e-15
 124    0.0016450974098912
 125     0.044116705489573
 126    8.7873569686246e-16
 127     0.016507827718852
 128     -0.23597966662851
 129      -4.5777882253575
 130    -1.9147307224137e-13
 131       0.2201664064451
 132    -0.018615605631578
 133    3.6212123826989e-13
 134        1.339521162392
 135       6.1378136499005
 136    0.0060929801015833
 137    2.1665077678826e-15
 138     0.044946046896336
 139     0.037916268220045
 140    8.995098996547e-15
 141    -0.044187416496441
 142      0.24572383909812
 143    -0.087097357324243
 144     -0.32270641148699
 145     0.039012235115131
 146      0.20141166033506
 147      0.33540154139111
 148     -0.26593390172016
 149    -0.035036589489997
 150       1.2569615626656
 151     0.079487315789073
 152     0.080927207981349
 153    -0.047801223598666
 154     -0.75590315873745
 155    -0.076439582988216
 156      0.24719993009775
 Sym= A
 Ene=    0.8806309228
 Spin= Alpha
 Occup=    0.00000
   1    1.5990986864656e-14
   2    1.100368241854e-13
   3    -2.3514254073973e-12
   4    -0.030876138089025
   5    1.1837140477356e-14
   6    -3.7788886570273e-14
   7     0.040514784718232
   8    4.6610351875155e-13
   9    -1.8777823700528e-12
  10    6.4219369674165e-16
  11    -0.060391990611458
  12    2.0109801830414e-15
  13    -1.4968969560397e-14
  14    0.0095432724947077
  15    6.4954586973429e-15
  16    1.6524073143776e-13
  17    -9.5827552770076e-13
  18       0.6620342460416
  19    -3.0019870606921e-14
  20    -4.7549820139047e-14
  21     -0.71684207165635
  22    3.5974744215083e-13
  23    -2.1326403965569e-13
  24    9.4237131656286e-15
  25    -0.011064750136655
  26    6.3961587223641e-16
  27    -1.5141795900983e-14
  28    -0.038643987055794
  29    5.101055486741e-15
  30    7.7187865108466e-14
  31    1.5966012397559e-13
  32      0.40127373963404
  33    6.3600141867869e-14
  34    2.2528069269865e-14
  35      -0.3746584019893
  36    -1.3859900771384e-13
  37    2.5585620803553e-14
  38    7.3992153635541e-15
  39     0.036050250003181
  40    9.5069826913944e-15
  41    -1.222671234065e-14
  42     0.023344253854414
  43    -1.6952688125263e-15
  44    -9.2296283660133e-14
  45    -1.8916007514335e-14
  46     -0.43527108264101
  47    8.1197310779126e-14
  48    -5.1063780151932e-14
  49      0.50927194644268
  50    -1.8361765565436e-13
  51    -4.3913057997407e-14
  52    -7.9181438941781e-15
  53    -0.032706903845003
  54    -1.0449891362952e-14
  55    1.6882523168667e-14
  56    0.0070616516791473
  57    -1.1353056323633e-14
  58    -2.4517877249153e-13
  59    8.6826917632216e-13
  60     -0.27554253328658
  61    1.7833865304841e-15
  62    -4.2569507018258e-14
  63      0.32766929503309
  64    2.2449750010455e-13
  65    3.2903401832962e-13
  66    -1.6222006727032e-14
  67     0.012742904585141
  68    -1.9116248626613e-15
  69    3.2845768239047e-14
  70    -0.038744221399535
  71    -8.7791566111173e-15
  72    -1.5518464655603e-13
  73    1.2749377636698e-12
  74      0.15232463284091
  75    1.0290122178417e-13
  76    3.8071361100668e-14
  77     -0.25336691975433
  78    3.370933521775e-13
  79    1.2066429568153e-12
  80    -8.560790615183e-15
  81     0.032904465557616
  82    -3.3579471837216e-15
  83    6.7032346946475e-15
  84     0.012515362676545
  85    1.022395919983e-14
  86    -6.313036835578e-14
  87    -1.3487310439408e-12
  88      0.11254546962192
  89    2.9854577209063e-14
  90    5.9926216386802e-15
  91     -0.35565825254706
  92    -4.7485992195172e-13
  93    8.0985222060171e-13
  94    -1.7506523962968e-14
  95    -0.022139801798832
  96    -5.6241513255176e-15
  97    -1.1432212053251e-14
  98    -0.0023424083296336
  99    -6.6848381600706e-15
 100    5.9283217723159e-14
 101    3.2171376061976e-13
 102     -0.12388121940711
 103    1.451115432957e-13
 104    4.1870338173896e-15
 105      0.19479527960456
 106    5.3783433249064e-14
 107    -2.7863269360599e-13
 108     2.03339913286e-14
 109     0.012655132052727
 110    -7.0593607669534e-15
 111    2.0702341045167e-14
 112    0.0013227404191112
 113    5.2457051548431e-15
 114    4.6317879823779e-14
 115    9.9473963812623e-13
 116      0.21996695335468
 117    1.8956680847095e-13
 118    -6.438727459885e-15
 119     -0.55690533590778
 120    -7.1557136796131e-13
 121    -6.4981744080392e-13
 122    3.3774584787919e-15
 123    -0.0059755469971911
 124    -1.9518821274305e-15
 125    -2.7815916810822e-14
 126    0.0022092278192853
 127    -2.2670403398473e-15
 128    1.141192014129e-13
 129    1.158586869906e-12
 130     -0.46487553454663
 131    -7.9546974336261e-14
 132    3.8129012119438e-15
 133      0.89784394121041
 134    -2.7881735696761e-13
 135    -2.3881185474298e-12
 136    -6.3770432104404e-15
 137    0.0080647099132774
 138    -1.5183739039528e-14
 139    -1.6286958570542e-14
 140     0.019283506852631
 141    4.5071805009112e-14
 142    -7.0478642364024e-14
 143    3.5103720128401e-14
 144    -8.8005841128785e-14
 145    -6.187619445207e-14
 146    -1.8904807921907e-14
 147    -1.1442461113979e-13
 148    5.3026747557345e-14
 149    -1.7257925368506e-15
 150    -3.8841577101361e-13
 151    -4.2975470591052e-14
 152    3.7311512861511e-14
 153    4.4922956118528e-14
 154    3.5168745195616e-13
 155    2.4666263955949e-14
 156    4.7054540607274e-14
 Sym= A
 Ene=    0.9043454966
 Spin= Alpha
 Occup=    0.00000
   1       0.0176376297357
   2     -0.24573037668895
   3    -0.040722165473126
   4    -2.9733065649749e-13
   5     -0.15706836988261
   6      0.18229391806546
   7    4.4158748182958e-13
   8      0.74507434803239
   9      -2.1055396794805
  10    -0.0085964173243675
  11    2.3165540061646e-14
  12    -0.056583578343971
  13    -0.0056402681120729
  14    -1.7202069218862e-16
  15    -0.022833091691185
  16     -0.43764667180268
  17      -1.2099959137547
  18    -4.3439615167278e-13
  19     -0.12677707504141
  20      0.34889892945331
  21    5.0784292943113e-13
  22       1.0233085604062
  23      -1.0475662659621
  24    -0.061435923855043
  25    -3.9843629825246e-14
  26    0.0027128110179161
  27     0.095987986496604
  28    -1.9598773784836e-14
  29    -0.0034605557172788
  30     -0.26802247097046
  31    -0.059067712715552
  32    9.2487761182783e-13
  33     -0.62994403715033
  34    -0.039541743283943
  35    -7.9181321961746e-13
  36      0.17272956745464
  37        1.129219001247
  38    -0.026889311976276
  39    4.209831336614e-14
  40    -0.023953833595491
  41     0.023534673859994
  42    -9.3352537337068e-14
  43     0.054758425110486
  44      0.17846697826223
  45     -0.72578322397275
  46    1.133865253074e-12
  47     0.041190724038915
  48    -0.065556257796316
  49    -1.6658712858465e-12
  50     -0.39610269834397
  51     -0.59492656555916
  52     0.010120792268164
  53    9.9630823297676e-15
  54    0.0037364774430743
  55    -0.095788780224395
  56    9.9302812788162e-14
  57    -0.032327415858297
  58      0.26585172071335
  59        0.918135798243
  60    -1.4137097550805e-12
  61     0.098226924692112
  62     -0.11458187981868
  63    2.0423148380803e-12
  64      0.67637776718113
  65      0.17326417077624
  66    0.0096944020674997
  67    -5.933565993464e-14
  68      0.02304646483492
  69    0.0047366755676424
  70    -2.984560453736e-14
  71    -0.00067118861912972
  72     0.027350091986033
  73       0.7453924997004
  74    -1.9450200751297e-13
  75     0.093992169322175
  76    -0.039943150143661
  77    1.2587208798009e-13
  78    -0.011929245780882
  79       1.6532508643498
  80    -0.0032934431648924
  81    1.3875752374137e-13
  82     0.024521911567624
  83    0.00055068162911771
  84    2.5614763813538e-14
  85    -0.0010651011240514
  86    -0.084189804417808
  87      -1.1605558825434
  88    9.2367410203091e-13
  89     -0.13720518279025
  90     0.068856315650217
  91    -1.6371109814888e-12
  92        0.490307747836
  93      0.81798996000578
  94    0.0038952580204726
  95    -2.3597177635901e-14
  96    -0.018126930813731
  97    0.0019774805009794
  98    3.9762039870679e-14
  99    -0.0081089606429678
 100     0.056895475271463
 101     -0.10229756558435
 102    -5.7849018361633e-13
 103     -0.02899593010872
 104     0.024728190893812
 105    1.3088539462128e-12
 106      0.41876200924831
 107     -0.13447913809345
 108    -0.011923094894229
 109    6.1121277821812e-16
 110    -0.0062319111662834
 111    -0.0010429062445408
 112    -8.0079079878481e-15
 113    0.0074808813034494
 114      0.07167646530747
 115      0.10154418145941
 116    1.682220552759e-13
 117     0.035303224686453
 118    -0.019618179121497
 119    -4.6672156329409e-13
 120    -0.069284795684738
 121     -0.16439610142188
 122    0.0094180615841719
 123    2.9379190735557e-15
 124     0.011065760835549
 125    -0.0069355757192414
 126    -2.7932051443721e-15
 127    0.0013181755390518
 128    -0.044772925278539
 129       0.9777484576073
 130    1.8884874031267e-13
 131     0.012734319473208
 132      0.03870123567036
 133    -2.1197330990337e-13
 134     -0.10534798456807
 135      -1.1752804326802
 136     0.021183971002644
 137    4.3648814953329e-15
 138      0.02295202090318
 139     0.017291121408079
 140    -2.5067320972439e-14
 141     -0.36890153295165
 142      -0.3110487986886
 143    -0.085033066135486
 144       2.2242383649929
 145      0.22535512717709
 146     -0.40452850177138
 147     -0.10122321979962
 148      0.35100575702721
 149     0.015218808656938
 150      0.16282825025697
 151    -0.0028058875552898
 152      0.20605279050696
 153     0.090644260987893
 154     0.002556523406647
 155     0.036823316558458
 156      -1.3839936124936
 Sym= A
 Ene=    0.9064100391
 Spin= Alpha
 Occup=    0.00000
   1    -3.9454042601021e-14
   2    4.8739498818809e-13
   3    -6.5700286724164e-14
   4      -0.1499486435093
   5    3.241087324544e-13
   6    -3.9152534299537e-13
   7      0.22784880051604
   8    -1.6650224909539e-12
   9    4.4750521401719e-12
  10    1.8145012646967e-14
  11     0.013146349789218
  12    1.2009994919683e-13
  13    1.9246980550929e-14
  14    -0.00068550183955273
  15    4.8768221102015e-14
  16    9.0027063395469e-13
  17    2.7018498051232e-12
  18     -0.22885050525088
  19    2.7772490744899e-13
  20    -7.235533404613e-13
  21      0.24882739838346
  22    -2.2003282932735e-12
  23    2.2720971382744e-12
  24    1.315603557105e-13
  25    -0.019566046680374
  26    -2.6096562792812e-15
  27    -2.0492633820762e-13
  28    -0.0092514271524459
  29    3.9344533968147e-15
  30    5.6257598511991e-13
  31    1.364012867244e-13
  32      0.41227548525774
  33    1.3791806223547e-12
  34    8.1114233553321e-14
  35     -0.33725905140895
  36    -3.4894164593732e-13
  37    -2.4578172474871e-12
  38    5.6524429075584e-14
  39     0.019902671644257
  40    4.6416574530027e-14
  41    -4.1141358331708e-14
  42     -0.04384954384053
  43    -1.1978605523702e-13
  44    -4.0412634949981e-13
  45    1.5199658425708e-12
  46      0.55810872336786
  47    -1.3015367552452e-13
  48    1.7202699434228e-13
  49     -0.80513772000223
  50    9.412264412715e-13
  51    1.1782823325298e-12
  52    -2.6200749407379e-14
  53     0.007867990686655
  54    -3.960065418062e-15
  55    2.0963163273795e-13
  56     0.046092904355159
  57    7.1001464217007e-14
  58    -5.4311989050637e-13
  59    -1.8663520711045e-12
  60     -0.62907842409024
  61    -2.3867046353509e-13
  62    2.8024888351846e-13
  63      0.90833381324208
  64    -1.3239392360285e-12
  65    -4.6442233649478e-13
  66    -1.2476602492562e-14
  67    -0.029039325834801
  68    -5.1040817956025e-14
  69    -1.3537880329852e-14
  70    -0.010267433616692
  71    4.6461039044794e-16
  72    -3.5801636868758e-14
  73    -1.3898139185071e-12
  74     -0.11657208895023
  75    -2.5403043336152e-13
  76    8.1329179562288e-14
  77      0.10368364796174
  78    1.690824312683e-14
  79    -3.3116828707884e-12
  80    6.123537395357e-15
  81     0.062394177799943
  82    -5.2573355129953e-14
  83    -2.2217537478245e-15
  84     0.011227535522357
  85    1.1340656575431e-15
  86    2.0778421645502e-13
  87    2.2329503659926e-12
  88       0.4333068955257
  89    2.571737601052e-13
  90    -1.329970110312e-13
  91      -0.7673670023077
  92    -8.4980074402083e-13
  93    -1.4786631893377e-12
  94    -6.5144073709317e-15
  95    -0.0086593433015292
  96    4.1632130404559e-14
  97    -1.3844959970661e-15
  98     0.019743191627147
  99    1.2820218068321e-14
 100    -4.1750699734703e-14
 101    1.2644187603439e-13
 102     -0.26505308162371
 103    5.8507964588893e-14
 104    -2.860800769308e-15
 105      0.60984303069139
 106    -6.4819457241112e-13
 107    8.5236883687039e-14
 108    2.7582509484681e-14
 109    -0.00084486372280834
 110    1.3841984146588e-14
 111    1.6062874499488e-15
 112    -0.0035555702457627
 113    -1.5256562812388e-14
 114    -9.0150436541396e-14
 115    -2.2304591833133e-13
 116       0.0693008969416
 117    -3.3310056053142e-14
 118    4.9631885615713e-14
 119     -0.19122457524806
 120    4.1873875602396e-14
 121    1.6959837248247e-13
 122    -1.6554389231505e-14
 123    0.0020210590621423
 124    -2.1722789012932e-14
 125    7.9590970097635e-15
 126    -0.0015587349915733
 127    -1.6626718987441e-15
 128    8.1578899021357e-14
 129    -2.4582373924074e-12
 130      0.11411800279139
 131    -6.6972027538152e-15
 132    -7.592831163339e-14
 133     -0.15548658021941
 134    2.6385764202398e-13
 135    2.1836260054376e-12
 136    -4.9912120010036e-14
 137    0.0027160934013746
 138    -4.7223834894489e-14
 139    -3.0957407810853e-14
 140    -0.013906802072648
 141    7.9029697190875e-13
 142    6.4087095046549e-13
 143    1.6335876480775e-13
 144    -4.8918194078833e-12
 145    -5.0150704541207e-13
 146    8.5434846859851e-13
 147    2.3435660019073e-13
 148    -6.9341807296952e-13
 149    -2.8974798022998e-14
 150    -1.9578565770652e-13
 151    1.3741439630748e-14
 152    -2.4995679373335e-13
 153    -1.6537050764395e-13
 154    1.0825980288561e-13
 155    -1.1044421565373e-13
 156    3.0703043000582e-12
 Sym= A
 Ene=    0.9493764204
 Spin= Alpha
 Occup=    0.00000
   1    -0.011098810014674
   2      0.37325344306475
   3       3.6895130710683
   4    9.9186813467089e-15
   5     -0.21485681622898
   6       0.1137095986787
   7    -1.5827397658382e-14
   8     -0.92032319775277
   9       1.7623396091162
  10    0.0074517427016264
  11    1.2818891352911e-15
  12     0.024429209723911
  13    -0.033598806969899
  14    -1.3503908052543e-15
  15     0.006709463622995
  16     -0.17148771254539
  17      0.50014288475324
  18    -2.3592125385159e-14
  19     -0.01431024944371
  20     -0.14251016589843
  21    3.6737696326857e-14
  22      0.28179062003561
  23      0.58587089378265
  24    -0.019493995973243
  25    -2.2526468658678e-15
  26    -0.015385117219849
  27    0.0046683829223687
  28    4.5250248443833e-16
  29    0.0019784059203443
  30      -0.1235257863431
  31     0.088760246860625
  32    3.1079876277748e-14
  33    -0.021271472305567
  34    -0.065601551148656
  35    -2.4318758605333e-14
  36      0.23899634722729
  37      0.34135366800539
  38    -0.00035146074882506
  39    9.9273300926122e-16
  40     0.024708094616379
  41    0.0035308166340243
  42    -2.6017420856196e-15
  43     0.002879207484883
  44    -0.0035072222835551
  45       0.5295434925499
  46    4.8760745870472e-14
  47    -0.015235846398234
  48    -0.061302632522802
  49    -7.8826910600932e-14
  50      0.31083567403225
  51      0.33959534107277
  52     0.026455385529022
  53    -3.2227808514983e-16
  54    -0.021258797283819
  55    -0.011232319184556
  56    2.307873899966e-15
  57     0.018124503264039
  58     0.084796662492081
  59      -2.0901845353399
  60    -7.3875864880023e-14
  61      0.13327341568358
  62     -0.15347427511244
  63    1.2083571421592e-13
  64      -1.3673921261305
  65     -0.54735911712345
  66    -0.011319869936821
  67    -2.3898042110911e-15
  68    0.0074450257001107
  69    -0.028797734275739
  70    -2.8046776909802e-15
  71     0.051295030213619
  72     0.061442927541222
  73      -5.2139729518265
  74    2.2510844248968e-14
  75     0.042204274309062
  76     -0.16759134080888
  77    -5.3162548244366e-14
  78      -1.1961112462551
  79      -4.4851013224182
  80     0.026497286181021
  81    6.6759884937268e-15
  82    -0.015592015092236
  83    -0.056874065420604
  84    2.7487280292478e-15
  85    -0.064801057112572
  86     -0.34900335453988
  87       6.6454728862103
  88    1.9094080083746e-14
  89      0.19412456740455
  90      -0.2313911997309
  91    -2.3115846085287e-14
  92      0.98500957557433
  93      -4.6188539990017
  94    -0.063824747814691
  95    -2.4252877083699e-15
  96    -0.0092103474969286
  97    0.00085664067018186
  98    -3.8044274158019e-16
  99     0.017123360302039
 100     -0.76801785969518
 101       1.5147769633813
 102    -1.6371090478203e-14
 103      0.33992896475529
 104     -0.28736863721732
 105    2.9508465644042e-14
 106      -2.8925784717845
 107       0.8972528752076
 108    -0.023794990433385
 109    7.9381558733754e-16
 110    -0.019756506874641
 111     0.033675490861434
 112    -1.2954024892386e-15
 113    0.0073655316882692
 114     -0.36548978491837
 115      -1.1022682296038
 116    7.0726241422322e-15
 117     -0.28716472489908
 118     -0.34210603588742
 119    -2.0490741899074e-14
 120       0.9133967258071
 121       2.8691457666835
 122    -0.044641542913572
 123    1.5726026142502e-16
 124    -0.025687486115026
 125     0.013055192027213
 126    7.1893487169286e-16
 127     0.043203199845767
 128      0.25008876840802
 129     -0.57624487423542
 130    -5.9549920436035e-15
 131     -0.18513938706341
 132     -0.12938717442555
 133    2.068824914543e-14
 134       2.5984136967713
 135       4.5564389537863
 136     0.080102221542427
 137    -1.6742824956072e-15
 138     0.041073254808337
 139    -0.055989937877394
 140    1.3395084163613e-15
 141    -0.059278365000006
 142     -0.26998612572379
 143    -0.055577631922767
 144      0.34513334140213
 145    0.0043161823354759
 146      0.14339763406979
 147     0.045793462610776
 148     -0.58966689032562
 149     -0.23525628574562
 150     0.081627180651894
 151    -0.095174800671293
 152      -1.4559241330505
 153    -0.051273997757726
 154      -1.4265789729864
 155    -0.018681294682415
 156     -0.12333087569849
 Sym= A
 Ene=    0.9592923537
 Spin= Alpha
 Occup=    0.00000
   1    4.9346840941253e-16
   2    -6.614146479333e-16
   3    2.0633010691614e-13
   4     -0.40182600452452
   5    -2.0781894375301e-14
   6    1.8213511100204e-14
   7      0.67542917399634
   8    -8.5372747402747e-15
   9    7.3391510170127e-15
  10    -1.2363661084326e-16
  11    -0.037614475546851
  12    -2.4034478592482e-15
  13    -5.3402499183925e-16
  14     0.023028016160821
  15    -1.4983114792733e-15
  16    -2.5773190259324e-14
  17    -3.7092811073252e-14
  18      0.46619569664969
  19     1.34419056041e-16
  20    1.0468860060576e-14
  21     -0.84365970616842
  22    3.2976808204326e-14
  23    -1.9766778585722e-14
  24    -4.0912996489722e-15
  25     0.007176987810561
  26    -9.0211069139334e-16
  27    7.0070174402192e-15
  28    -0.041097721530726
  29    3.5173349700845e-16
  30    -2.6969076676911e-14
  31    -1.7419491376795e-15
  32     -0.14110600266976
  33    -3.5765586109557e-14
  34    -3.4037317439492e-15
  35      0.31353621001398
  36    2.9640292451256e-14
  37    6.4657655507977e-14
  38    -2.6071114323291e-15
  39     0.021510226714432
  40    9.9771081894322e-16
  41    6.729820584165e-16
  42    -0.0098387327109282
  43    2.7811881599655e-15
  44    3.3735149572369e-15
  45    2.1012424215504e-14
  46     0.041508837140078
  47    3.3591514453285e-15
  48    -1.3512592725903e-14
  49     0.068533413685513
  50    -1.2104874166443e-14
  51    2.0310882896704e-14
  52    1.6751879870045e-15
  53     0.021834053217896
  54    -9.7722747898288e-16
  55    -5.460940483839e-15
  56     0.011891867863857
  57    -3.6093174433729e-16
  58    1.7126316649763e-14
  59    -6.6954880746492e-14
  60      0.36258975362095
  61    1.0400146848964e-14
  62    -1.575036121277e-14
  63     -0.84859487709551
  64    -4.318435963334e-14
  65    1.1272350669704e-14
  66    -1.1097725818239e-16
  67    -0.0058329258097758
  68    2.7328080056336e-15
  69    -1.7322091143003e-15
  70     0.037395010803297
  71    2.442774493198e-15
  72    1.1866694683857e-14
  73    -2.1012339567676e-13
  74     -0.74084473923414
  75    -4.4676501232433e-15
  76    -8.4038607255652e-15
  77        1.415205881868
  78    -4.2987578560976e-14
  79    -1.1791939560707e-13
  80    1.2326753056393e-15
  81    -0.012719316317623
  82    -1.4993920764631e-15
  83    -2.2310995946987e-15
  84     -0.01373072615417
  85    -4.1258744488592e-15
  86    -1.1877332118461e-14
  87    2.8128871536334e-13
  88      0.39889884719294
  89    -1.3383245144279e-14
  90    -5.1117961554658e-15
  91      -1.0153707416575
  92    1.5332346676661e-13
  93    -1.4574292559449e-13
  94    -2.2710164529326e-15
  95     0.040617643111985
  96    -9.1437859155904e-16
  97    1.6491277662912e-16
  98     0.048942078694303
  99    5.2725209673727e-16
 100    -2.4055350440408e-14
 101    -5.0548136685409e-15
 102     -0.10667818222895
 103    1.6979243834849e-14
 104    -7.4874009480751e-15
 105      0.46444297476502
 106    -1.0877397356239e-13
 107    5.2020705010538e-14
 108    -1.7633263445416e-15
 109     -0.02123313924949
 110    -1.1925858364264e-15
 111    1.2963087402798e-15
 112     0.010310905764109
 113    6.677429941984e-16
 114    -8.255812891379e-15
 115    -7.5199028535842e-14
 116    -0.0098080208394516
 117    -7.6110824512709e-15
 118    -1.6761269014106e-14
 119     0.041730895938455
 120    2.9533470981121e-14
 121    1.250272087161e-13
 122    -1.8725106225636e-15
 123     0.014272482736456
 124    -6.232810515423e-16
 125    -6.5375499815543e-16
 126    -0.0081756452816166
 127    2.3688544374041e-15
 128    6.7908266135427e-15
 129    -4.5550659934268e-14
 130      0.20965386402291
 131    -1.1685803673932e-14
 132    -5.6832952683441e-15
 133     -0.52835172559063
 134    1.5362620521041e-13
 135    2.0515735985184e-13
 136    5.6193726410855e-15
 137     0.030828376477517
 138    3.2018951415811e-15
 139    -1.8181101803089e-16
 140    -0.056578100676933
 141    -2.3795767370773e-14
 142    -5.1189652010112e-15
 143    -7.4812257377894e-15
 144    1.366247301028e-13
 145    1.3458386601106e-14
 146    -3.1891710263169e-15
 147    -7.2432906516429e-16
 148    -1.9030275973436e-14
 149    -1.5494332745115e-14
 150    6.2620761973077e-14
 151    -1.4046801178482e-15
 152    -5.3785663467282e-14
 153    6.3584574991911e-15
 154    -5.9284437855598e-14
 155    5.5563826174593e-15
 156    -8.8632211900806e-14
 Sym= A
 Ene=    0.9760577669
 Spin= Alpha
 Occup=    0.00000
   1     0.011820209792299
   2      0.15687993758587
   3       4.0257538231113
   4    6.7481606052827e-15
   5     -0.13037364173967
   6     0.056080850527785
   7    -1.2938824602533e-14
   8      0.18873530315515
   9       2.3868585176935
  10      0.03915441810276
  11    -8.8515370386784e-17
  12    -0.004593455635353
  13    -0.006455718223256
  14    4.2238540865179e-16
  15    -0.0028750756216834
  16      0.26671347847017
  17       0.1879752498638
  18    -2.399396331051e-15
  19     0.025352172983573
  20      0.26421026198325
  21    4.7681030790092e-16
  22     -0.56684097054423
  23     -0.31910985034799
  24    -0.0086450038948507
  25    1.0274138188639e-15
  26     0.013996734909247
  27    -0.025407853426986
  28    9.4795493882041e-16
  29    -0.0057052274100465
  30    0.0063532692302712
  31     -0.49705756877441
  32    -2.0149143123413e-14
  33     0.054351550275838
  34     0.056543337437883
  35    2.4252651476265e-14
  36      0.10830518113855
  37     -0.12645128712018
  38    -0.0082507190400984
  39    -1.6181304012854e-16
  40    -0.018850939156825
  41     0.011286711942544
  42    1.2100693004541e-15
  43    -0.0043008324562562
  44    -0.089443925143804
  45      0.31198770714068
  46    2.3996721399603e-16
  47    -0.00062514402169533
  48    -0.011726759194191
  49    -8.4006202074328e-15
  50      0.21350584297203
  51     0.058332526638512
  52    -0.0029375013814079
  53    -3.7833971279217e-17
  54    0.0049090289076655
  55     0.010671476933168
  56    -9.8425896457645e-16
  57    -0.010281277911177
  58      0.10394817084156
  59      -1.1766348488431
  60    2.6359340281773e-15
  61    -0.058540531028118
  62     0.060733084853654
  63    4.7809594851193e-15
  64     -0.27723302108578
  65     -0.51016051573313
  66    -0.00096020888926732
  67    4.5720636054353e-17
  68     0.001968602733321
  69     0.010652787280215
  70    -3.051834239348e-16
  71    0.0088534921922389
  72     0.092895551431636
  73      -2.0755679652693
  74    9.5894060947077e-15
  75    -0.032660452123328
  76     0.056446433093867
  77    -1.813417825237e-14
  78     -0.86595095625913
  79       -2.377764677318
  80    -0.027352338075573
  81    -5.7717245730904e-16
  82    -0.048790462685907
  83    0.0050203158665291
  84    -4.2366390784768e-16
  85    -0.062896635007157
  86    -0.087252467001732
  87       5.1661471851747
  88    -5.9961007803872e-15
  89      -0.6081710587998
  90      0.13347347454415
  91    1.4341138680601e-14
  92       4.0725181256144
  93         -1.2114479305
  94     0.028876457537234
  95    -6.8262906043871e-16
  96     0.047884324661107
  97     0.032765497545426
  98    -9.3603989325295e-16
  99      0.05711215154126
 100    -0.021007336431247
 101      -4.2473142109889
 102    3.7668871892524e-15
 103      0.39636215642491
 104     -0.47092214261903
 105    -1.1218435878467e-14
 106      -2.4712775707228
 107       3.9264410742809
 108    -0.0047084514290768
 109    1.0729012606323e-15
 110    -0.017258983086736
 111    0.0051279091116134
 112    -4.5632116979243e-16
 113    -0.023926577324169
 114     0.024632410012589
 115     0.062290700057723
 116    6.2500377948686e-16
 117      0.11466744718933
 118      0.44661477635764
 119    -3.097724374239e-15
 120      -1.1932105607042
 121      -1.2751273536208
 122    -0.039448877475559
 123    -4.948032782338e-16
 124      0.01304121192733
 125    -0.033897458967731
 126    -3.3049870721585e-17
 127    0.0076409070750453
 128     -0.12281749057115
 129      -3.1542267253463
 130    -9.6565919920933e-15
 131     -0.01289341424572
 132     -0.14176213125302
 133    2.0650255955855e-14
 134      0.42384524700542
 135       4.6099466037305
 136     0.047446874152334
 137    -8.1030820876446e-16
 138      -0.1200793068982
 139     0.084388648331417
 140    1.0584267397429e-15
 141     0.078408667282197
 142      0.24919112660813
 143    -0.0096362601714971
 144     0.024929588183356
 145    -0.0092921206909637
 146    -0.00071192837673606
 147    -0.027343340107317
 148    -0.048078825025405
 149     -0.27644582176905
 150       2.0191392968056
 151      0.40186802810572
 152      -2.1387893897214
 153    -0.062177888850973
 154       1.1073557534458
 155    -0.0099039398576296
 156    -0.033101640951898
 Sym= A
 Ene=     0.983098837
 Spin= Alpha
 Occup=    0.00000
   1    1.0883978509377e-15
   2    7.8734704676325e-15
   3    -2.7137972183207e-13
   4      0.36907086523643
   5    9.6501949847005e-15
   6    -4.6249024438124e-15
   7     -0.74834483427995
   8    6.5048652365429e-14
   9    -2.4707018175134e-13
  10    1.222951962354e-15
  11    -0.035453821630373
  12    1.1566958336944e-16
  13    1.1849027539598e-15
  14    -0.0037531707855309
  15    7.2514380453959e-16
  16    3.3836468054297e-14
  17    -2.1497386848585e-13
  18      0.29593155580012
  19    -1.2937261709285e-14
  20    -1.7296019173646e-14
  21     -0.42850510053915
  22    1.2609008981951e-13
  23    -8.522596439389e-15
  24    3.1106077484067e-15
  25     0.031342475955934
  26    -3.6217892746362e-15
  27    8.326810013624e-16
  28      0.01558803738275
  29    -1.7226645746626e-16
  30    -9.6718935335834e-15
  31    2.6231267750079e-13
  32      -0.7947807355037
  33    1.810074323324e-14
  34    -1.6015994590318e-14
  35       1.2141765110596
  36    -2.1101135606491e-13
  37    1.4435266734656e-13
  38    7.7888526954438e-16
  39    -0.019055101848008
  40    1.5185156332262e-15
  41    -1.4082870894445e-14
  42     0.016171767733654
  43    4.1518172859688e-15
  44    4.9742454345505e-14
  45    -2.4304217614096e-13
  46      0.42229663675722
  47    5.1264104949678e-14
  48    1.6219169326152e-14
  49     -0.89819826775403
  50    -2.7883396407747e-13
  51    -8.8908000285836e-14
  52    9.3669284661109e-15
  53    -0.0040314926828127
  54    4.7357583627818e-15
  55    -1.8504148011893e-15
  56    -0.027289517188784
  57    -1.5763759379275e-15
  58    1.5864940329559e-14
  59    1.3256427650456e-13
  60     -0.28934272620503
  61    -5.2807310824915e-15
  62    -1.6380107342067e-14
  63      0.55029532210015
  64    1.3513104945283e-13
  65    1.2560952426112e-13
  66    -3.6134333643049e-15
  67    -0.018756524200681
  68    -1.7256190360042e-15
  69    -5.0658571649772e-15
  70    -0.010624959702675
  71    -2.6875602429973e-15
  72    -1.5937583230959e-14
  73    1.1992043629518e-13
  74    -0.041498069764837
  75    -4.1052112259741e-15
  76    1.9906898674005e-15
  77      0.14438873558373
  78    1.1715250497762e-13
  79    2.4093894809193e-13
  80    -3.4201061358188e-15
  81     0.037361073419539
  82    -4.8866733294383e-16
  83    2.5767355114574e-15
  84     0.021828669587819
  85    1.8996768499745e-15
  86    -1.495145514717e-14
  87    -2.5405743210692e-13
  88      0.13307598050759
  89    -1.0716774119516e-15
  90    8.0639421511472e-15
  91     -0.44089864316306
  92    -9.2959352766558e-14
  93    1.1649251622509e-13
  94    1.8906526156578e-15
  95    -0.0055571472521326
  96    1.0228301049205e-15
  97    8.2375573130681e-16
  98    0.0018432853598434
  99    -4.9512949100504e-16
 100    1.5732107360963e-14
 101    7.1428495266703e-14
 102    -0.069634985216333
 103    -2.0962389491652e-14
 104    1.0810942896748e-14
 105     0.074075142789117
 106    1.1440968225995e-13
 107    -9.1972167773285e-14
 108    2.7224781789906e-16
 109    0.0055961379566684
 110    -8.9312482453702e-16
 111    -2.0064435519612e-15
 112    -0.0029759436343593
 113    -2.2094925455713e-16
 114    9.9212661321089e-15
 115    5.802347381958e-14
 116     0.057148902503833
 117    5.1829492236356e-16
 118    -2.8486226744133e-15
 119     -0.35272781519885
 120    -2.3075316554681e-15
 121    -4.0499668691821e-14
 122    1.1410318141484e-15
 123    -0.0021709932879935
 124    8.8457605738318e-16
 125    1.0596306337565e-15
 126    0.0046156916193559
 127    -1.1625396761194e-15
 128    1.2700011304697e-14
 129    1.6467159925951e-13
 130     -0.41440050705393
 131    -1.2470391699027e-15
 132    5.7686262823506e-15
 133       1.0372013952057
 134    -6.4647649614542e-14
 135    -2.8409115347614e-13
 136    -9.2776597483011e-16
 137    -0.032617660673003
 138    6.9635316377264e-16
 139    1.7385356019687e-15
 140    0.0022640988907558
 141    1.4458311078005e-15
 142    -2.3004397793587e-14
 143    -1.3481588256071e-14
 144    1.6866668637969e-13
 145    3.7802119493209e-14
 146    -1.0978521271403e-13
 147    1.1843533455735e-14
 148    3.9111553807982e-14
 149    -1.4184012288569e-15
 150    -2.5975645130405e-14
 151    -3.6850433836016e-15
 152    6.4963192899443e-14
 153    -5.1763662870846e-15
 154    9.2863356891247e-15
 155    -2.5113087670287e-14
 156    -1.2958344389375e-14
 Sym= A
 Ene=     1.041406147
 Spin= Alpha
 Occup=    0.00000
   1    -0.030987234380849
   2     -0.30180934551976
   3       2.5028862759015
   4    -3.1229014872319e-15
   5    -0.083352726118295
   6     -0.11876569170575
   7    1.4693544780775e-14
   8      -1.2038582138223
   9       3.9290686656167
  10    -0.032010175574091
  11    -2.8492602896979e-15
  12     0.029266946661104
  13    -0.002067835136871
  14    7.0571854761228e-16
  15    -0.017833956185585
  16     -0.25258535355626
  17       2.4094887856111
  18    1.5006471571865e-14
  19      0.20849932117211
  20     0.070809544024814
  21    -2.9782143012065e-14
  22      -1.7164106963611
  23       1.1888365590136
  24    -0.013491983943145
  25    2.8190061562759e-15
  26     0.010748974327665
  27       0.0204507785446
  28    -4.7722287362001e-16
  29    -0.010717534551027
  30     -0.12339076835645
  31     -0.69338420407082
  32    -2.342260671871e-14
  33    -0.099331965124844
  34       0.1371939223592
  35    3.8685594831819e-14
  36       1.3401391296903
  37     -0.73659586537214
  38    -0.017113138753666
  39    1.1171493064815e-15
  40    -0.012546879079705
  41     0.048500918070594
  42    -2.3426882399429e-15
  43    4.8676267921337e-05
  44    -0.026408590931521
  45      0.62872249895887
  46    2.7550272868982e-14
  47     -0.19756278981721
  48    -0.019773769379515
  49    -4.8566185091622e-14
  50       1.5071214893623
  51      0.12396485012894
  52    0.0066429620255303
  53    3.0058700876388e-16
  54    0.0037203182718289
  55    -0.011481745074995
  56    1.403204408758e-15
  57    0.0046469991719668
  58      0.21437134928626
  59      -2.0051136886988
  60    -1.7629097650639e-14
  61      0.20548771382375
  62     0.097089004259618
  63    3.4148401400528e-14
  64      -1.0510958083871
  65      -1.6774452102036
  66    0.0080627426282941
  67    -9.7869360571494e-16
  68      -0.0304177337353
  69    0.0055549758685683
  70    4.3204727705327e-16
  71     0.029270462493392
  72      0.11294287027899
  73      -1.3153555498138
  74    -8.0488374439359e-16
  75      0.15935209651097
  76     0.097656121793571
  77    -5.9716768356726e-15
  78      -1.8591983926149
  79      -3.1794600500127
  80     0.014687265732627
  81    6.701089179185e-16
  82     0.054226094510857
  83     -0.01751475311816
  84    8.4735585400871e-16
  85     0.027341340110608
  86     -0.06917167418976
  87       1.9749455769599
  88    1.0913667974445e-14
  89      0.67081759661824
  90    -0.079865072657527
  91    -1.834194572156e-14
  92      -2.4549788163608
  93     -0.77849646957503
  94     0.015724065870945
  95    9.3732934132384e-16
  96     0.021968504242471
  97     0.020669159212561
  98    5.9564638893786e-16
  99     0.010244601225487
 100     -0.12910980775591
 101     -0.59038106081615
 102    -6.1841336120086e-15
 103      0.25897064218551
 104     -0.41294802156674
 105    1.2030081141325e-14
 106     -0.83637829543203
 107       2.1896726899931
 108     0.018032919455758
 109    -2.0311740996948e-15
 110     0.057645525949522
 111     0.027961133017274
 112    -1.2720311987044e-15
 113    -0.0030471830622191
 114      0.19177420532668
 115     0.050229732358537
 116    -1.6358280958451e-16
 117      0.15955009479968
 118      0.42614810158601
 119    -4.2964968232391e-15
 120     -0.27123262081271
 121      -1.7553758776491
 122     0.028075543824333
 123    -5.4179858869074e-16
 124    -0.0036395822983666
 125    -0.028288133976798
 126    4.353023921435e-16
 127    -0.014355489631995
 128     -0.34338882363802
 129     -0.64917513022511
 130    6.7541798141805e-16
 131      0.49712920041859
 132     0.041037026162765
 133    1.1945250476234e-15
 134      -2.6086239299057
 135       1.8494804361144
 136    -0.064174281681692
 137    1.5433115392171e-15
 138    -0.087406720395311
 139     -0.06688649834894
 140    -8.682813075021e-16
 141    -0.0074786424141952
 142       0.6510549391887
 143     0.029933429789843
 144      -1.1283538459051
 145    -0.017559972625109
 146       0.3317569223716
 147     -0.02074794716011
 148     -0.18758601067694
 149      0.18855094540756
 150       -1.718092670839
 151      0.04027875643325
 152      -1.2191876747683
 153     -0.12931794670993
 154       1.0267425243902
 155       0.1541125327153
 156      0.17192255560229
 Sym= A
 Ene=     1.049339918
 Spin= Alpha
 Occup=    0.00000
   1    -0.018310250779521
   2     0.021052012889565
   3       2.5939297611253
   4    1.4086738185019e-14
   5      0.13912795394426
   6    -0.066547179139051
   7    -2.3222390337711e-14
   8      -1.2788480895419
   9       3.2369926017911
  10    -0.014900372458935
  11    -2.8564164188452e-15
  12      0.03457004122986
  13    -0.027865688079199
  14    1.6104871657371e-15
  15    -0.0019531620947745
  16     -0.15750137818558
  17       2.1777866905584
  18    2.489035270811e-14
  19      0.23639060993429
  20    -0.077303161511951
  21    -2.6909177426092e-14
  22      -1.7844971196294
  23      0.92438475266561
  24    -0.014172777892723
  25    6.918112170615e-15
  26     0.014847020036337
  27    -0.023382798342609
  28    2.1621378453423e-15
  29    -0.0094609143330466
  30     -0.25717779106327
  31      -0.5056128192308
  32    -5.7901520397042e-14
  33     -0.34234168465934
  34      0.28607675116078
  35    7.2237481159231e-14
  36       2.0479863203851
  37      -1.8351745795291
  38     0.011203408910036
  39    -1.1307476570932e-15
  40    0.0047530289651211
  41     0.088067311200149
  42    -6.6442791033155e-15
  43    -0.014038760133182
  44     -0.46719867589507
  45       2.0620523594587
  46    2.9702435178388e-14
  47     -0.45147955621292
  48     -0.23807091464123
  49    -5.5307552976939e-14
  50       1.7278461262882
  51       1.0544311225144
  52    -0.085847688106862
  53    1.2869674159904e-15
  54    -0.078349834963601
  55    -0.016940635344068
  56    2.7485815422918e-15
  57    -0.0035771997145196
  58    -0.020920379005731
  59     -0.46541811261744
  60    -1.8667271008083e-14
  61     -0.12683707199884
  62     -0.20027214737316
  63    4.0990091924564e-14
  64     -0.26860418077082
  65      0.22942308422414
  66     0.058674019511745
  67    -3.2035858685717e-16
  68     0.063420566877539
  69     0.063722383821479
  70    -7.6312072785116e-16
  71     0.003549523848178
  72      0.42609796619232
  73     -0.91022478615166
  74    1.3859060638237e-14
  75     0.012473637214036
  76     -0.10039339978676
  77    -2.934122648262e-14
  78     -0.57051588233158
  79    -0.079278556440013
  80     0.035898845297268
  81    2.046385871388e-15
  82    -0.051923330081232
  83    -0.0080186293069262
  84    -9.5406024533427e-16
  85    -0.0090055354724747
  86      0.63314418344279
  87     -0.47007837589756
  88    -3.8065545256417e-15
  89     -0.14826289530153
  90    0.0046625533672409
  91    8.6265382160152e-15
  92      0.93622506838925
  93     0.084278214764383
  94    -0.031075765030584
  95    -1.1754232619821e-15
  96    -0.037856579474414
  97    -0.023681720619269
  98    -1.275242682976e-15
  99    0.0020669806776886
 100    -0.015256519151175
 101      -1.0304353962071
 102    1.5493606900079e-15
 103      0.12812893332744
 104      0.29847744893368
 105    -1.0136907690833e-14
 106     -0.59484208594329
 107     -0.46945531474173
 108     0.024722466547677
 109    6.7960180271327e-16
 110     0.027370700394506
 111    0.0085444597617435
 112    3.2747310987599e-16
 113    0.00042065371267994
 114     -0.34370668755654
 115     -0.94975170483515
 116    1.188005117164e-16
 117     0.011690652985213
 118     -0.12239286863954
 119    -9.0389936932007e-15
 120       0.3576936523575
 121       1.4186276532399
 122    -0.040707352922258
 123    -1.1553282028897e-15
 124    -0.017337099422206
 125    0.0064794577262609
 126    -3.8888853513192e-16
 127    -0.0057400189358852
 128    -0.063175413616441
 129      -2.0600882913226
 130    -1.7386019853956e-14
 131      -0.1307031666966
 132    -0.066771678649901
 133    4.0859966823702e-14
 134       1.4069309902482
 135       3.4984214558085
 136    -0.027293323241551
 137    -7.2275347365529e-16
 138    0.0075033219732182
 139    0.0063380017760172
 140    1.3578385916019e-15
 141     0.079841153726538
 142      0.59866765589912
 143      0.14125964328877
 144      -2.7373185793632
 145     -0.32338465199203
 146       1.0247657458853
 147     -0.23560857440235
 148      0.18468378588113
 149    -0.017249012269711
 150      0.51573400136048
 151    0.0096757143408814
 152      0.25750614084982
 153    0.0094440796377688
 154     -0.58125425148513
 155      0.42488229182738
 156      0.40631751969438
 Sym= A
 Ene=     1.063108488
 Spin= Alpha
 Occup=    0.00000
   1    1.2526389130957e-15
   2    8.1119522923938e-15
   3    3.6947678153111e-14
   4      -0.7369281954679
   5    -7.2067803484083e-16
   6    -4.9399443089668e-15
   7       2.1871651127826
   8    6.4886198585586e-15
   9    1.040026900029e-13
  10    1.0660046553692e-15
  11    -0.014510743485394
  12    7.3045392147749e-16
  13    4.116766968302e-16
  14     0.011126671189587
  15    -1.5688812158313e-15
  16    1.3609350981524e-14
  17    8.2003753608337e-15
  18      0.33158697303512
  19    1.6161955398979e-14
  20    -9.5073296409962e-15
  21      -1.1965727234539
  22    -5.854775116406e-14
  23    3.662492650691e-14
  24    2.7149306482906e-15
  25     0.024817310117901
  26    -2.9980048076606e-15
  27    4.5447031980632e-15
  28     -0.01942274384731
  29    3.2032233258516e-16
  30    -1.8426715696228e-14
  31    1.0912806999062e-13
  32     -0.29665228606154
  33    7.5219752224722e-15
  34    -6.6421452652323e-15
  35      0.84042815021748
  36    -6.5893402312251e-14
  37    2.5006682188089e-14
  38    -3.6346851208922e-15
  39    -0.004889020041054
  40    1.9445795022471e-15
  41    -5.8538763082848e-15
  42    -0.011068382234456
  43    1.7374948009634e-15
  44    1.251699952317e-14
  45    -5.2872547556597e-14
  46      0.20977990386682
  47    3.6090466318678e-14
  48    1.0855632126596e-14
  49     -0.69698644033878
  50    -1.4991628404294e-13
  51    -2.8214424282661e-14
  52    4.8629711887416e-15
  53    0.0083859533213611
  54    2.8795981068514e-15
  55    -7.7237444749521e-16
  56    -0.005339133597116
  57    -3.2723526662951e-16
  58    4.8391292571937e-15
  59    1.3761564814777e-14
  60     -0.18001998026724
  61    -1.0612051352026e-14
  62    -1.5090968602332e-14
  63      0.84346503753931
  64    6.3595080499015e-14
  65    7.8184195574841e-14
  66    -2.553436713684e-15
  67    -0.0093515218340964
  68    -2.8025266319402e-16
  69    -2.3317268793528e-15
  70    0.0032444359929033
  71    -1.3029897375461e-15
  72    2.7158354296575e-15
  73    6.8303401281669e-15
  74      0.57738695985117
  75    -5.6970747593207e-15
  76    4.2890291786786e-15
  77      -1.8046953603255
  78    5.1335025092149e-14
  79     5.47134881557e-14
  80    -1.8494798481443e-15
  81    -0.015720312800881
  82    -2.8836035263454e-15
  83    -8.9895028922083e-16
  84    -0.018403228643368
  85    7.1633996604907e-16
  86    1.8223570706016e-14
  87    -8.3829273310541e-14
  88     -0.22677242562914
  89    -5.0663351778613e-16
  90    8.309531052068e-15
  91       1.0852030284079
  92    -2.0542066619238e-14
  93    1.4528953881753e-14
  94    7.1648377573335e-16
  95    -0.011292370409616
  96    -4.7861155904867e-16
  97    -6.3842584723478e-16
  98    -0.012736188843697
  99    9.8710141823452e-17
 100    4.4783204370306e-15
 101    -5.0999422078957e-14
 102      0.10599212187538
 103    3.2666242396137e-15
 104    1.2670267120078e-14
 105     -0.20256258047391
 106    -1.2714528595979e-14
 107    -1.1238936993867e-14
 108    1.7899559468048e-15
 109    -0.0017839928593977
 110    2.4865200612401e-15
 111    8.817769632374e-17
 112    -0.023058180644412
 113    1.0019671812375e-16
 114    -1.1178623675017e-14
 115    -5.4966038631805e-14
 116     0.040898223080341
 117    3.1138741136887e-15
 118    -1.9738838219736e-15
 119      0.33545831960644
 120    1.9553474368482e-14
 121    4.6097490200853e-14
 122    -5.8479336920046e-16
 123    -0.0099537429178552
 124    -9.0738853013682e-16
 125    3.7899728812244e-16
 126     0.012144713842703
 127    -1.2372967175348e-15
 128    5.1709508157241e-15
 129    -1.564405300268e-14
 130       0.3635345301573
 131    -1.7479638837454e-15
 132    -9.8785264963363e-15
 133      -1.3893325381918
 134    1.2656810865922e-14
 135    1.5247499856522e-13
 136    -2.3015795612982e-15
 137     0.062379992276733
 138    2.6512924344272e-16
 139    -8.7933935676339e-16
 140     0.034989342889948
 141    -1.4328761032613e-14
 142    5.3957805608779e-14
 143    -1.2153251645576e-14
 144    6.722443652506e-14
 145    2.2662626990902e-14
 146    -6.5413326292451e-14
 147    4.136989983464e-15
 148    2.440715008108e-14
 149    -2.7223305223134e-15
 150    5.5954712704982e-15
 151    5.8747558892223e-16
 152    1.2167447325221e-14
 153    1.5255488345635e-15
 154    -1.7387835099254e-14
 155    -1.2402090721587e-14
 156    -1.5177729340041e-14
 Sym= A
 Ene=     1.093061777
 Spin= Alpha
 Occup=    0.00000
   1    -0.0042758813944557
   2     -0.20513922131815
   3       5.4834130293346
   4    1.8756970309066e-14
   5    -0.047481850790911
   6     -0.11419229496882
   7    -5.8501830935141e-14
   8      -0.5699619716711
   9       4.6267600690533
  10     0.029665225506266
  11    2.3859056544483e-15
  12     0.041920603280781
  13    -0.014205453228211
  14    -2.4811599340645e-15
  15    -0.021672306564269
  16     -0.24914230332635
  17       2.0078400382115
  18    -2.936952185083e-14
  19      0.24074069088758
  20     -0.02883691299506
  21    5.1280312797486e-14
  22      -1.2099585729462
  23      0.52477817734768
  24     0.034766400301391
  25    -4.4232415575242e-15
  26     -0.01316429649449
  27     0.068119797334692
  28    9.8585100289869e-16
  29    0.0083619377234785
  30     0.089975519205133
  31    -0.065288815795927
  32    3.0898456952357e-14
  33       0.2022460417361
  34     -0.12168736283102
  35    -5.4307765524136e-14
  36     -0.89991993563085
  37      0.44953483606135
  38    -0.067751903357207
  39    -3.6893519478211e-16
  40    -0.00085982927450261
  41    -0.058591459633403
  42     5.43763350626e-15
  43      0.01785474901501
  44      0.17877787235087
  45     -0.74332088243026
  46    -2.2925873682202e-14
  47      0.45523926521843
  48      0.12197007351693
  49    4.3581224413692e-14
  50      -1.4156627512589
  51     -0.65398315409955
  52     0.040653609837919
  53    -2.836720061993e-15
  54     0.023071958146358
  55    -0.0024796918920314
  56    -2.0869549393243e-15
  57    -0.012521819557466
  58     -0.10526635319551
  59      0.32743396469303
  60    5.869800454432e-15
  61     -0.22044539708117
  62      -0.2211400792095
  63    -3.1957489272027e-14
  64      0.88274594729326
  65      0.56915306998508
  66    -0.0061021094514327
  67    1.2859612593406e-15
  68    -0.0017692759697829
  69    -0.00059191219439329
  70    -3.8831898550081e-16
  71    -0.0076213040847785
  72      0.37591499822456
  73      -1.8873634570859
  74    -2.015255229345e-14
  75    -0.029053794296754
  76      0.12405303853441
  77    5.8243786495032e-14
  78    -0.079419967834875
  79     -0.48485661102314
  80    -0.028362645009057
  81    7.7061231629747e-17
  82    -0.046746398567995
  83    -0.018824653085461
  84    2.3432145846953e-15
  85     0.012357057431068
  86      0.88623528429878
  87      -1.3937617471239
  88    1.0053795257914e-14
  89      0.15817020026828
  90      0.24979793435393
  91    -3.6783113594472e-14
  92      -0.7065482435198
  93      -1.0888816558341
  94     0.014572539738416
  95    1.5360733995079e-15
  96    -0.034020840088947
  97    -0.012852311629042
  98    1.3662046539896e-15
  99     0.011797335895353
 100     0.022972229337827
 101      -2.2712855039018
 102    -4.501656082849e-15
 103      0.42068770401436
 104      0.19603492494751
 105    1.0094439251333e-14
 106      -2.1619151430929
 107      0.62657677153106
 108     0.057091183977373
 109    -1.6907348668146e-15
 110      0.11311738945398
 111     0.032590657867511
 112    -3.553364298323e-16
 113    -0.0029686579568456
 114      -0.5914668556969
 115      -1.2219309273552
 116    -1.6462959409326e-15
 117      0.11160855881019
 118    -0.095431518039552
 119    -6.4229484359585e-15
 120      0.54661087115813
 121       1.8594924115423
 122    -0.071730077899867
 123    7.6518726992173e-16
 124    -0.041181252626128
 125    0.00066778520489561
 126    1.2906842337443e-16
 127    -0.029848463539033
 128     -0.27104785126482
 129     -0.37334430109411
 130    -5.2051650452976e-15
 131      0.16234895669484
 132      -0.3374387628365
 133    2.883662550247e-14
 134     -0.16468223932514
 135       7.0863469885103
 136    -0.086443996640468
 137    -1.0618916508847e-15
 138    -0.020682424144904
 139    -0.032515230905822
 140    -2.7400826027548e-15
 141     -0.24916906237396
 142      0.68978896920725
 143    -0.087695069184279
 144       1.3075894368406
 145      0.23140622646909
 146     -0.79544672898613
 147     -0.11585390548494
 148      0.42941029668682
 149      0.02981807751355
 150    -0.016582608912733
 151      0.10912269706773
 152     -0.46537165214644
 153    -0.040447075487739
 154     -0.70717622541459
 155     -0.18491435055941
 156     -0.25078137102142
 Sym= A
 Ene=     1.105175532
 Spin= Alpha
 Occup=    0.00000
   1    -0.0046449237860774
   2    -0.048904964342728
   3       1.5143895690927
   4    -2.1304628605188e-15
   5      0.09037058040695
   6     0.083497125225009
   7    4.3512025738837e-15
   8     -0.77738196902017
   9     -0.39643834284478
  10    -0.0046071670892147
  11    -7.7854294282787e-16
  12    -0.017024679454925
  13    -0.014682512395091
  14    8.6022325899307e-16
  15    -0.0057909220572573
  16      0.15860668781056
  17      -0.8853706204272
  18    8.6627592745848e-15
  19    -0.045152010671879
  20     0.092687843711845
  21    -1.0137882793921e-14
  22      0.26089474421591
  23     -0.15445479029507
  24    -0.030446590622922
  25    6.3759072820523e-16
  26    -0.011059937260252
  27     -0.01320043525675
  28    -1.3818003689911e-16
  29    0.00014563288679302
  30    -0.087164036504077
  31       1.1410968244011
  32    -4.6728723154055e-15
  33    -0.084678767812176
  34     -0.10230169052282
  35    7.990608969367e-15
  36    -0.021781751885052
  37      0.62561269626101
  38     0.034821933916053
  39    -2.7411141345148e-16
  40    -0.072221056980562
  41    -0.0058140173320881
  42    9.4376750553392e-17
  43     0.019638579812881
  44     -0.23440735663882
  45      -1.6132758977272
  46    -6.284228397127e-15
  47      0.07933064233338
  48      0.51363783971712
  49    3.0562904695767e-15
  50     -0.45709410898911
  51      -2.7773539129283
  52     -0.05699734707396
  53    -1.1406003240284e-15
  54     0.056329315835155
  55     0.012744552790837
  56    1.1967238908993e-16
  57    -0.038240655121536
  58      0.28207839768435
  59       2.5844126126921
  60    7.0669760048519e-15
  61     -0.74556835726906
  62      0.29596371347402
  63    -7.197839819423e-15
  64       3.8186458743398
  65     -0.69190796771764
  66     0.069486653807838
  67    2.6044723832316e-16
  68    -0.030749338230922
  69      0.02963011587911
  70    6.1482816157459e-16
  71    -0.007531112635189
  72     -0.13815198387716
  73     -0.71403978768225
  74    -1.8688113053381e-15
  75     0.077003871147142
  76     -0.18936160404477
  77    5.5038774993162e-15
  78     -0.57718152980344
  79       3.1771368744009
  80    -0.046182537599467
  81    -6.0280322332705e-16
  82     0.073861959470848
  83      0.01284546318335
  84    -5.0571185464142e-16
  85    0.0025263825712579
  86     -0.28448977790922
  87      -1.3654832304162
  88    9.6413490400899e-16
  89      0.18150504797185
  90     0.026925043877476
  91    -3.8182053628417e-15
  92      0.49769960959619
  93      0.22691463907627
  94     -0.05259479032128
  95    7.3710323212938e-17
  96    -0.002283592899183
  97    -0.022480021152947
  98    1.2938933203451e-16
  99    -0.0083302948683377
 100     0.039305431170655
 101      0.13344075201954
 102    -1.0184862577994e-17
 103     0.089294339897172
 104     -0.14568535034848
 105    8.1247213207372e-16
 106     -0.66019511533995
 107     -0.40690612472378
 108     0.013819897056629
 109    1.7443104823513e-16
 110     -0.02090999233245
 111     0.021549486865085
 112    2.8197676269236e-16
 113    -0.0013887530443877
 114     -0.27459503343262
 115    -0.061375481309598
 116    -2.6378054626028e-16
 117     -0.10179931125795
 118     -0.18126425720126
 119    -2.3515855252228e-17
 120    -0.036250444755851
 121        1.074406415525
 122    -0.017673175761299
 123    -2.3008088157779e-16
 124    -0.016895914404857
 125    0.0012830601872523
 126    -1.6361594391474e-17
 127     0.040007765691717
 128     -0.22185296156044
 129    -0.088165899751548
 130    -1.6886908121028e-15
 131    -0.087285056960221
 132    -0.041410906005295
 133    5.1221667718145e-16
 134       1.6867935070649
 135       0.7624479004648
 136      0.02985212828935
 137    3.4904759028504e-16
 138    -0.0054667247251941
 139    -0.033428476621493
 140    -3.5663211649406e-16
 141      0.10246772872744
 142    -0.039229978607316
 143      0.19785275181242
 144     -0.87405556880527
 145      0.12928599052108
 146      -1.3561451855503
 147     -0.21298428991382
 148       2.1121753459064
 149      0.25669200899826
 150     -0.20218027556105
 151      0.10106602927001
 152     -0.10281963950957
 153       0.1148855827934
 154     -0.54769340386716
 155      0.12577790319222
 156      0.37469466374171
 Sym= A
 Ene=     1.119835975
 Spin= Alpha
 Occup=    0.00000
   1    -0.0092595170856291
   2     -0.32893414622674
   3       1.9800412474518
   4    -3.2247491857527e-15
   5    0.0018417470080638
   6     0.023700058527264
   7    1.1316669195061e-14
   8      -0.5347653346279
   9       1.8513502323819
  10    -0.0002626037678327
  11    -1.688180435512e-15
  12     -0.10446433815528
  13     0.042275134274041
  14    1.153924217872e-15
  15    0.00063229312676095
  16      0.23634308727568
  17      0.99185078597111
  18    6.9268697548235e-15
  19     -0.10866728002373
  20      0.34509804156567
  21    -1.5136374371907e-14
  22      -0.4980177564244
  23     -0.46379612970498
  24    -0.0056245465646456
  25    2.5314004007332e-15
  26     0.033390180122371
  27    -0.040392758116909
  28    -3.7166138295852e-16
  29    -0.0034566906797942
  30      0.18556036070275
  31      -1.4839659481951
  32    -1.5201309884848e-14
  33     0.015708314384881
  34      0.11298653754152
  35    2.4290971219609e-14
  36      0.32482028198921
  37     -0.69907906436128
  38      0.01110483371761
  39    2.6259960485023e-16
  40    -0.023856216749557
  41     0.023766472627333
  42    -5.3921195051747e-16
  43    -0.012836055623259
  44      0.15073234658192
  45      0.43401177340067
  46    8.2628347696191e-15
  47     -0.17858637981211
  48      -0.1760636932531
  49    -1.7316391361672e-14
  50       1.1257393248534
  51       1.0217025201603
  52     0.021713399587485
  53    1.2408839751296e-15
  54     0.022382774080969
  55    -0.003820349635254
  56    1.0768730997518e-16
  57     0.017019752933242
  58     -0.10962550986666
  59      -0.7438233289223
  60    -1.2019912309117e-15
  61      0.49635016923392
  62      0.19718871435863
  63    1.035113330613e-14
  64      -1.9069463550855
  65     -0.76251043442591
  66    -0.026980437456421
  67    -4.2422865784935e-16
  68    -0.010292157688733
  69    -0.016262028758097
  70    -3.6221327773961e-16
  71    -0.013368200811077
  72     -0.28458863146092
  73      -0.2893151449126
  74    7.0051105612459e-15
  75     -0.11830549749141
  76      0.14385999757257
  77    -1.6839455254536e-14
  78      0.18872349341747
  79      -1.7417528004114
  80    -0.0041818295515732
  81    -2.8101491726942e-16
  82     0.074793155506121
  83     0.036192614787903
  84    -1.1103442228109e-15
  85     0.016414941366918
  86      0.04580382244804
  87       1.0123136985298
  88    -1.4057800621709e-15
  89      0.10180525071507
  90      0.26454681853652
  91    6.762550031015e-15
  92    -0.035009386560431
  93       -1.943566657838
  94     0.024429581664364
  95    -4.6243992831553e-16
  96    -0.007124734781155
  97    -0.025800493389484
  98    -8.456611654955e-16
  99    0.0044962142602096
 100       0.5979280401261
 101      -1.5248844484436
 102    1.6765057978745e-15
 103      0.30494259266849
 104    -0.090017017571248
 105    -4.7185544466836e-15
 106      -2.0973122956656
 107     -0.11848871804028
 108     0.030200853950165
 109    8.6691969026328e-16
 110     0.039562416039493
 111    0.0090604178580441
 112    -1.8449207825781e-16
 113    0.0062692292238094
 114     -0.73330572347456
 115      0.82760249978529
 116    -3.3689600773426e-16
 117    -0.068836439281548
 118     -0.43454956453297
 119    -8.5286767123561e-16
 120     -0.19866550144827
 121       2.1119745331104
 122    -0.050103347562907
 123    -4.2172592717751e-16
 124     -0.04685012665259
 125    -0.035257564443909
 126    -7.897599683413e-17
 127     0.022388624760091
 128     -0.68943945399522
 129      0.72638564278378
 130    -4.5192072573041e-15
 131     -0.14252162463898
 132    -0.072802710230449
 133    5.003414867616e-15
 134       1.3904536926199
 135       2.6190400239892
 136     0.025632508748542
 137    1.0210548597581e-15
 138    0.0038138984523877
 139     -0.02031649095648
 140      7.0042091624e-16
 141      0.19245524007658
 142     0.039818577934552
 143    -0.013712766402881
 144     -0.18523002319357
 145    -0.027872901288926
 146      0.71640779089731
 147      0.22497135317091
 148      -1.1344724065139
 149      0.15300611994693
 150    0.0039871326302399
 151     0.069412290636567
 152     -0.17752799111138
 153      0.22821403646588
 154      -1.2098114101344
 155    -0.043681204552331
 156      0.02420454221964
 Sym= A
 Ene=     1.133494543
 Spin= Alpha
 Occup=    0.00000
   1    0.0045608651783079
   2     -0.41649923805816
   3     -0.43705936296638
   4    -1.1930894034147e-14
   5      0.11189689296809
   6      0.12485026540523
   7    3.6746643421305e-14
   8     -0.60282175466573
   9      -3.8288183059659
  10     0.022907690472833
  11    -2.438810971349e-16
  12      0.04557131377095
  13    0.0058848468285272
  14    9.5177801659196e-17
  15     0.045484017570359
  16      -0.5078817975268
  17      -1.7197953097921
  18    1.9613028836932e-14
  19     -0.85513538221237
  20     -0.06574421681402
  21    -3.264329922716e-14
  22       3.7746907239057
  23      0.23052412635552
  24     -0.07162674979246
  25    -8.7676845306717e-16
  26     0.023301548931369
  27    -0.049618000899314
  28    -3.2087249080737e-15
  29    -0.00048771670176801
  30     0.036216496123447
  31       1.4599830852815
  32    -3.5160482821905e-15
  33      0.18559812466299
  34    -0.077115753612437
  35    1.7223428039737e-14
  36     -0.63843763544165
  37       1.6326247446997
  38     0.044046927257306
  39    1.4442016760384e-15
  40     0.018087150160371
  41    -0.020166021566854
  42    2.3896353470927e-15
  43    -0.022823896537358
  44      0.43157961328853
  45      -1.4450074117485
  46    6.2793014842164e-15
  47    -0.025875311426387
  48     -0.26402535337371
  49    -8.9863326762371e-15
  50     -0.16148639705787
  51     0.050698889860695
  52    -0.036314393175671
  53    1.5805266282546e-15
  54    -0.087370758161134
  55     0.022145667651688
  56    -7.2653979557993e-16
  57    -0.010146219812361
  58       0.3134622364773
  59      0.24265779807359
  60    -6.0361959377347e-16
  61     -0.24141597779499
  62    -0.035693282385236
  63    6.8831602694451e-15
  64      0.89282053571015
  65      0.14454725454392
  66     0.041643713983814
  67    -1.1382805511407e-15
  68     0.017698501500473
  69     0.032633793602182
  70    6.1242018214648e-16
  71    0.0033862969420135
  72      0.17764669747439
  73     -0.34820485173605
  74    6.5442927725971e-15
  75      0.11436726704381
  76    -0.045491483814571
  77    -2.4464948975187e-14
  78     -0.59332942678098
  79       1.4676624294945
  80      0.01511134079531
  81    3.9075881413334e-16
  82     0.020263245213192
  83     0.031957434600996
  84    -6.7060797531783e-16
  85     0.012388329977078
  86        0.265471273186
  87      -2.5226850144683
  88    -5.6861407929165e-15
  89    0.0014459781236922
  90    0.0093980933678998
  91    1.8261186495902e-14
  92     -0.49949650543021
  93      0.63461129135747
  94     0.003436732932124
  95    -1.0722705303982e-15
  96    -0.0085401109752498
  97     0.013838004891259
  98    2.4960307641488e-16
  99    0.0072318998062487
 100     0.020488286699016
 101      0.15238270126486
 102    2.1055462654298e-15
 103      0.12851484895877
 104    -0.097874510513949
 105    -4.8714860704453e-15
 106     -0.34052695772297
 107      0.13615400510053
 108    -0.0006375931747392
 109    1.0539352870961e-15
 110      0.01750064369619
 111    -0.0049678826419751
 112    8.3858342116112e-16
 113    -5.7165685673586e-05
 114    0.00040918810157926
 115      0.83515454582945
 116    7.5486421254019e-16
 117     0.011500978148293
 118    -0.023057254979967
 119    4.9438948433461e-15
 120    -0.0096146079569004
 121     0.055480539363131
 122    -0.040506968000486
 123    -9.5237284902218e-17
 124    -0.0020915593407621
 125    -0.0042398677710726
 126    -4.7598438178527e-16
 127    -0.022736700287671
 128     -0.23194593855859
 129       4.4205463108122
 130    3.0855921799966e-15
 131      0.18430247816508
 132    -0.039761942419124
 133    -1.8976571228161e-14
 134     -0.93302039703656
 135      -2.1461811060426
 136     0.013798170367522
 137    8.3131374611123e-16
 138    -0.028626297490105
 139    -0.00024787059324496
 140    -5.9400133172292e-16
 141      0.34931419607611
 142      -2.2924426919385
 143    -0.041556255498798
 144       1.2258460396341
 145     -0.30459596737045
 146      0.61921635347593
 147       -0.199821029263
 148      0.66415309540849
 149     0.086473266147746
 150     -0.21656144170888
 151     0.095601486491221
 152     -0.28176346849296
 153     -0.15630739569065
 154    -0.050803381777928
 155    -0.086698680208098
 156     -0.25256187424429
 Sym= A
 Ene=     1.160841483
 Spin= Alpha
 Occup=    0.00000
   1    0.0020554121670406
   2      0.11159784481496
   3      -3.3864225849079
   4    2.7302922757675e-16
   5     0.066202180356309
   6    0.0054830002464765
   7    -1.3668555094414e-15
   8      0.35153011166827
   9      -3.4975439949633
  10    -0.016259745639809
  11    -1.5777440866509e-15
  12     0.018274686731246
  13     0.005350238168936
  14     8.01939178851e-16
  15     0.016217061025141
  16     -0.10824720618715
  17      -2.2000685882402
  18    9.2036962951834e-15
  19     -0.46064859717646
  20     -0.17895441554666
  21    -1.5438412746237e-15
  22       2.1855587812754
  23      0.40103115151194
  24    -0.051424384057432
  25    2.5912180633316e-16
  26    -0.027683669784922
  27    -0.0098818292398395
  28    -3.2112400232291e-15
  29    -0.016891289306789
  30     -0.42865469734992
  31       2.4724329221434
  32    8.3223278897837e-15
  33    -0.096687907868166
  34    -0.095196497934278
  35    -1.1908784456919e-14
  36    -0.046311381622826
  37       1.3938053868402
  38     0.051811682181579
  39    1.3337805190291e-15
  40    0.00092010498955297
  41     0.029791752533127
  42    -2.2932860355242e-15
  43     0.016781210439613
  44     -0.98542887192217
  45       1.8851741994163
  46    -4.1867792851589e-15
  47      0.24041807166064
  48      0.57731002378039
  49    7.3812443991175e-15
  50      -1.0842466749655
  51      -1.5422410455599
  52     0.049127969816602
  53    -2.419554071205e-15
  54     0.007185755430885
  55     0.037672763429362
  56    5.9965921457598e-17
  57     0.012185502747111
  58     -0.20880891796546
  59        1.399505847284
  60    -8.5408152380027e-16
  61       0.4653679881225
  62     -0.13209315814623
  63    -8.1542406277388e-16
  64     -0.59150566658018
  65        1.127120360827
  66    -0.034681138170237
  67    1.9831038860282e-15
  68    0.0017393869002381
  69    -0.067240107874212
  70    -1.0625099742702e-15
  71     -0.00377439126468
  72      0.38922805905256
  73       -1.049392575364
  74    4.1517075066425e-16
  75    -0.019916859884872
  76    0.0099606154167425
  77    2.7258405768904e-17
  78       1.0093996781272
  79      0.51721299804025
  80    -0.011520160898961
  81    -8.574126714504e-16
  82    -0.0082216285360909
  83    0.0063501819374227
  84    -5.5244141588387e-16
  85    0.0038419612750672
  86     0.099207033847291
  87      -1.6133108938417
  88    2.7269200923447e-16
  89    -0.019406249505672
  90      0.16061920218534
  91    2.0574416963689e-16
  92      -1.3063962342371
  93     -0.46090473211662
  94     0.039075343266192
  95    7.0051569880727e-16
  96    -0.0016390048405728
  97     0.033938844560726
  98    -1.4043997791697e-17
  99      0.01156056367207
 100     0.030216536863635
 101       1.0081258090032
 102    -8.4931595557325e-16
 103     0.049085784383422
 104     0.046120152497814
 105    5.2618157152319e-17
 106    0.00071701438954626
 107     -0.64060534581886
 108     0.024939535896781
 109    -8.1364200686846e-16
 110     0.014390477689059
 111    -0.012378273285323
 112    -5.0637986171033e-16
 113    0.0004355679101849
 114    -0.077413681661077
 115       1.4477349947953
 116    -2.0699661758462e-16
 117     0.058651875113553
 118    -0.023628286514778
 119    7.1204915302805e-17
 120     -0.27889443490499
 121     -0.29602320783541
 122    -0.024560132996596
 123    -6.7599627235047e-16
 124     0.010932960945621
 125    0.0037065032518885
 126    -5.4008636079557e-17
 127    -0.026054099116696
 128     -0.20335472257367
 129       4.0553397916822
 130    1.2664538055403e-15
 131     0.091224867145568
 132     0.078357368336676
 133    2.2895658882101e-16
 134      -1.2214658931201
 135      -3.3602283294582
 136     0.016938551617522
 137    8.8020983309071e-16
 138    -0.019772246583626
 139     0.018213771412046
 140    4.2924376255736e-16
 141      0.19079909671277
 142      -1.1354085645037
 143      0.10970947787163
 144      -0.3228553294234
 145      0.17590499072667
 146       -1.633097557096
 147      0.27407047638895
 148     -0.86713786430001
 149     -0.12072420442997
 150     -0.16234417194746
 151      0.11076047981068
 152     0.081261902170934
 153     -0.10573157210735
 154     0.050145281771396
 155      0.21694464202712
 156     0.097172376096546
 Sym= A
 Ene=     1.205950128
 Spin= Alpha
 Occup=    0.00000
   1     0.023723545271466
   2      0.67776760553855
   3      -1.9697511602542
   4    -2.637473569578e-15
   5     -0.31354924809929
   6    -0.034304458578192
   7    4.6519157419223e-15
   8       3.3983155416646
   9     -0.87423801276069
  10      0.08227158174349
  11    5.0772136568069e-16
  12     0.039091201418834
  13    -0.0076491852143041
  14    -4.0637101544046e-16
  15     0.012536114329036
  16      0.11185195091793
  17      -1.4304239504597
  18    7.2050947689473e-15
  19     -0.18896372454499
  20      -0.2500917782474
  21    -1.0354359520483e-14
  22      0.61978693544276
  23     -0.62104544669855
  24    -0.033273687675428
  25    4.3878946642151e-16
  26    -0.031830823951015
  27    -0.056623340587687
  28    1.2179994637317e-15
  29    0.0056277916392234
  30      0.28331078673618
  31      -1.2822030525547
  32    -9.9281357663304e-15
  33     -0.30636132757663
  34     -0.18749695512182
  35    1.9176153277785e-14
  36      0.56986679200861
  37      0.52123919811754
  38     0.068182278577983
  39    -2.6613055725354e-15
  40    0.0095663858029853
  41    0.0061773722964753
  42    -2.6253271421284e-15
  43    0.0064761074411511
  44      0.13235808136055
  45      -0.4668310740296
  46    7.7572907410166e-15
  47     -0.41875851038024
  48    0.0011207196793313
  49    -1.2249030254642e-14
  50       1.4539391521838
  51     -0.19967785406914
  52    -0.057392658255541
  53    2.0298402421639e-15
  54     0.041246499758029
  55    -0.030493688946115
  56    4.5316915562633e-17
  57    -0.015924023599305
  58     -0.72383987286422
  59       2.4342518777101
  60    -5.4722808492844e-16
  61    -0.043136352600991
  62      0.20210451653604
  63    6.2270235346826e-15
  64    -0.035217392977608
  65     -0.27426173348036
  66     0.030555133514392
  67    -2.5266747470404e-15
  68    -0.053318445795875
  69     0.096971946710646
  70    3.1653581017892e-17
  71    -0.028477160497729
  72     -0.19765407813433
  73       3.5601797589896
  74    1.4763854701927e-15
  75     -0.24126405418029
  76      0.29757195838884
  77    -5.1794903943017e-15
  78       2.8473598999429
  79      0.72441972691071
  80     -0.10733272858829
  81    1.027855771034e-15
  82     0.030529085717639
  83    -0.057418333803556
  84    6.8681868684274e-16
  85    0.0013353195673901
  86    -0.083427761697773
  87      -1.9242809833853
  88    -1.7986224946885e-15
  89      0.23425045614342
  90      0.18846009594866
  91    2.8921022979134e-15
  92       -1.793788647593
  93      0.39236651217633
  94     0.037827003072634
  95    -1.610786579005e-15
  96    0.00014542707756436
  97     0.034643960893118
  98    5.9016814199296e-16
  99    -0.00081336417282475
 100     -0.35033030808342
 101     -0.10385461227827
 102    7.3640665384932e-16
 103    -0.066367730860134
 104      0.05476327805594
 105    -5.1396935359337e-16
 106      0.81655660001089
 107    -0.050963201374009
 108     0.028105169413865
 109    1.5411875346648e-15
 110    -0.0021173171526268
 111     0.039065656592866
 112    9.2795120253058e-16
 113    -0.010539796467346
 114    -0.012576660372069
 115        -1.24313085419
 116    5.2600876718373e-16
 117     0.053781978076336
 118    -0.022470758140167
 119    -5.9001920777944e-17
 120       0.5525944989278
 121    -0.052249837393963
 122    -0.034485338213523
 123    6.7548656988416e-16
 124     0.041377087805473
 125     0.069035027812133
 126    -3.1627899929767e-16
 127    -0.0015682330994069
 128     -0.19687919602791
 129       2.4011762757608
 130    -1.4242071659587e-15
 131      0.18243202343657
 132     -0.32213207714235
 133    4.0939637249056e-16
 134      -1.8528464386215
 135        1.539351698392
 136    -0.021545509805752
 137    -9.5428242676877e-16
 138     0.042238573613527
 139    -0.018234650006146
 140    -1.2187286958953e-15
 141    -0.035375106950287
 142     -0.41784072431107
 143      0.03210209461579
 144      0.44985754470824
 145     0.092944782831501
 146      0.42073281723501
 147    -0.065788611202487
 148     -0.11481655596096
 149     0.039276148668147
 150     -0.26817917038447
 151      0.42552251268359
 152    0.0029273781585738
 153      0.15964061995122
 154    -0.014627933219961
 155    -0.031920378982704
 156     -0.15580510744224
 Sym= A
 Ene=     1.234244223
 Spin= Alpha
 Occup=    0.00000
   1     0.016593551719484
   2     -0.19364284539676
   3      -1.9831503483422
   4    -1.3166768931646e-15
   5    0.0051295632325707
   6     -0.20389815711508
   7    2.8711989616515e-15
   8     -0.71688433901898
   9      0.07953104181337
  10     0.043257032043513
  11    -5.4650637366985e-16
  12     0.081726290443822
  13     0.070355954038966
  14    -4.6370326189017e-16
  15    -0.0045009441916268
  16    0.0027860047660828
  17     -0.20325958281769
  18    1.3432982672574e-16
  19     0.057292292572478
  20     -0.15674537197191
  21    -1.4838340813507e-15
  22    0.0014284900767967
  23       1.8348743233586
  24     0.010938524652681
  25    1.3329289820932e-15
  26    -0.019776691609091
  27    0.0076300633023474
  28    6.1958362095217e-16
  29    -0.0057374098985088
  30      0.32843954366789
  31    -0.0080823406297644
  32    -6.097225083853e-15
  33     -0.30492259346808
  34      0.11905245525651
  35    6.0805764812316e-15
  36       1.7316098659123
  37      0.63508925759904
  38    -0.0035716668244603
  39    -1.6546352772655e-15
  40     0.026270829071739
  41    -0.023857528329595
  42    -2.0126982871345e-15
  43    -0.00059695107655156
  44      0.24322824514834
  45       0.3249904511487
  46    4.2682639762975e-15
  47     -0.13359851005832
  48       0.4097193132813
  49    -4.6506777756376e-15
  50       0.8983490427871
  51        -1.43574094948
  52    -0.067437059859041
  53    2.5571870464317e-16
  54     0.012340128217536
  55    -0.062873638359671
  56    1.2465268506907e-15
  57    -0.0074400401319253
  58     -0.32944047998541
  59       1.7415076254263
  60      9.9672142689e-16
  61     0.062003278385016
  62      0.24883989285339
  63    -7.879639140004e-16
  64    -0.091900382289279
  65        -0.53338261051
  66     0.029628858704573
  67    -1.638569622925e-15
  68     -0.04646451663295
  69     0.025251288150463
  70    1.5343401837707e-15
  71    0.0074300325891093
  72     -0.72540237069759
  73      0.36058494517166
  74    -2.3401896102743e-15
  75    -0.021854034857336
  76     -0.12540920792095
  77    3.2082763459053e-15
  78      0.60602972832056
  79     0.030929835110673
  80      0.05411165214801
  81    -5.2726260255148e-16
  82    -0.043978354453134
  83     0.065363494775844
  84    7.4549044370219e-16
  85    -0.010751572472955
  86      0.14441581747222
  87     -0.69719160132624
  88    -1.3053896478971e-15
  89     -0.19575875672164
  90     -0.23674527605431
  91    1.7738827263586e-15
  92      0.31916084177521
  93     -0.71494889118318
  94    -0.061573407111517
  95    5.8971245862832e-16
  96     0.082858665617832
  97     0.016738588783048
  98    7.3355822386715e-16
  99    0.0026236730798887
 100        0.714220783034
 101     -0.83511307815441
 102    -3.1051577389836e-16
 103     0.072348870098666
 104     -0.13875927928547
 105    -6.1736500504948e-16
 106      -1.3508080250762
 107     -0.58175880031762
 108     0.025452345419954
 109    -1.0503623461476e-15
 110    -0.017780318153207
 111    -0.0072395045168049
 112    3.6754661190171e-16
 113    -0.013928779271253
 114     -0.32575024921724
 115       2.1312160125997
 116    -5.0195921374784e-16
 117     0.045915509888643
 118    -0.059174233427504
 119    2.9381918127799e-15
 120     -0.50403159262256
 121      0.98152603534441
 122    -0.038746476550079
 123    1.303420292346e-16
 124     -0.04974476277716
 125    -0.018832428182471
 126    -3.220564182407e-16
 127    -0.0065080865512416
 128      0.58621852650302
 129      -0.1479625393825
 130    2.6132095407858e-15
 131      0.20199028119393
 132     -0.12202402613768
 133    -6.5950613444628e-15
 134      0.43706416551856
 135     -0.59693570318622
 136    -0.021097403832667
 137    1.3122570676677e-15
 138     -0.08271590275831
 139    -0.008774650015963
 140    -1.4262708422547e-15
 141     -0.16433024868704
 142     0.069573533686266
 143     -0.14197216267065
 144      0.22531205432733
 145     -0.10977229765899
 146     -0.38561981544934
 147    -0.094360053732153
 148     -0.23146453300457
 149    -0.075375097558425
 150      0.42630133326754
 151    -0.033724982601558
 152     0.082536746909573
 153     -0.54060377724598
 154     -0.32867753760075
 155    9.1997788058143e-05
 156     -0.23321542473775
 Sym= A
 Ene=     1.236261297
 Spin= Alpha
 Occup=    0.00000
   1     0.009958222700028
   2      0.13805067064666
   3      -1.4508204252839
   4    5.7217636835895e-15
   5    -0.068561175808346
   6     -0.24084411858102
   7    -1.8581232292134e-14
   8       1.3803585602478
   9      0.59300331560518
  10     0.093708265176036
  11    -2.0926052962697e-15
  12     0.014850390433195
  13     0.075050546859803
  14    2.3190932036577e-15
  15    0.0075242701819972
  16      0.31317919150911
  17     -0.17891124297758
  18    -6.4553233436105e-15
  19    -0.017739611955067
  20    -0.081114749111867
  21    2.012019915047e-14
  22    -0.063197606712639
  23      0.14155645494694
  24     0.021277421038064
  25    1.9404834438627e-15
  26    -0.036731445237082
  27    -0.010533912274883
  28    -3.3579618057057e-16
  29    -0.016383920810508
  30     -0.48435616643399
  31       2.5611915773966
  32    1.0210483358509e-14
  33     -0.11263543858132
  34      0.22276329696323
  35    -2.6345637439983e-14
  36     -0.61617543090403
  37     -0.92586986351618
  38     -0.05588948689979
  39    8.3182574753115e-17
  40     0.092773834391823
  41     0.006190017696749
  42    -3.6204108416881e-15
  43    -0.013246582536336
  44     -0.47610340554819
  45       2.3121462852345
  46    -5.8311076962225e-15
  47      0.26657585394884
  48     -0.25385788434439
  49    1.6586282458313e-14
  50      -3.0744037543955
  51       1.7841460206726
  52    -0.029729841632265
  53    -2.0324519380453e-15
  54      -0.1085508099046
  55     0.043231614943331
  56    1.9169096706767e-15
  57    -0.011771150917391
  58      0.38239508701553
  59      0.40585839083538
  60    -9.1756578110691e-16
  61    -0.081637879524574
  62     -0.34909691926338
  63    -7.9981182637484e-15
  64      0.96808880161986
  65       4.9668606899605
  66    -0.022271592214995
  67    3.360379651504e-15
  68     0.086172219217804
  69     0.011417208555194
  70    -6.9355514895622e-16
  71    -0.025520203690567
  72     -0.29596305346769
  73     -0.13175792189657
  74    -2.6270047327779e-15
  75     -0.50337591762212
  76     -0.15261138926123
  77    1.1627593634966e-14
  78       4.6697658454411
  79       3.6615180491102
  80    -0.025103493146033
  81    -1.3331890748496e-15
  82    -0.038927660178024
  83     0.035291999610301
  84    -2.0311208909677e-15
  85     0.015525601201008
  86     -0.18372576275446
  87      -2.4913384535243
  88    2.141643339416e-15
  89       0.1858602393973
  90    0.0034720843796753
  91    -5.9557050137602e-15
  92      -1.8883094023395
  93    -0.025005910163055
  94    -0.019434121812451
  95    9.1768605856647e-16
  96     0.072692421717173
  97    -0.017437233759835
  98    -1.746247705682e-15
  99    -0.016662807515085
 100     0.081917037722902
 101      0.61273698162257
 102    -1.8791245003167e-15
 103    -0.052283098227672
 104     -0.32772423259632
 105    6.5225778829386e-16
 106    -0.018090540420385
 107       0.2442735009438
 108    -0.0090087102135692
 109    -1.2015933260637e-15
 110     0.014769587743784
 111     0.015566680670701
 112    7.181699474942e-16
 113    -0.000822596768368
 114      0.20257672191042
 115      -2.0558012819484
 116    -2.0455788240756e-15
 117    -0.045489212527441
 118      -0.1094150643688
 119    -1.6818597612785e-15
 120      0.72581164265314
 121      0.83041217417663
 122    0.0018055272623786
 123    -7.3119576736685e-16
 124    -0.028598977213452
 125     0.015906265025659
 126    -1.0460670369776e-15
 127     0.018304675975873
 128    -0.099456950371896
 129       1.4132723024772
 130    -1.3295996434112e-15
 131      0.11728418315702
 132     -0.34773448755295
 133    9.8830665997275e-15
 134      0.10184050552008
 135       2.3806868718575
 136     -0.03702456477125
 137    2.6326331732578e-15
 138    0.00027144898705976
 139    -0.035120935710198
 140    9.2924042929452e-16
 141    -0.093249717895532
 142       0.1294874257146
 143     -0.20600099637189
 144     -0.28306975092104
 145     -0.26952077511909
 146    -0.0044965729945581
 147      0.17936575980526
 148      0.58669657751625
 149      0.26179031752092
 150     -0.58160611472538
 151       0.1138296785608
 152     -0.28488372861842
 153     0.083801258172088
 154      -0.2704906762839
 155     0.035628801715063
 156     -0.12234492154079
 Sym= A
 Ene=     1.239238503
 Spin= Alpha
 Occup=    0.00000
   1    -0.0094137730409882
   2     -0.56783250760266
   3       1.1099558328575
   4    -1.0343734320613e-15
   5     0.099624369546294
   6     0.016958623260105
   7    5.2141023181517e-15
   8     -0.32185026073084
   9       -0.498787788363
  10    0.0081432173860123
  11    -9.1170362662125e-16
  12     -0.04832522466195
  13     0.041930125199114
  14    1.0185939357584e-15
  15    0.0080419361454396
  16     0.087495168283197
  17     -0.67127250617637
  18    2.4688723821134e-15
  19    -0.032478429834891
  20     0.029902443491605
  21    -9.4564178916752e-15
  22      0.34751022997468
  23     -0.10215341113319
  24    0.0048145469342295
  25    1.734940039033e-15
  26      0.03090627310564
  27    -0.014967453007519
  28    -3.2183533792078e-16
  29    0.0080907263769573
  30      0.53533943107527
  31      -1.3038407696465
  32    -1.193241763123e-14
  33     -0.09106179366993
  34     0.056243255313719
  35     2.10593132341e-14
  36       0.6356023193096
  37      0.33343916560756
  38     0.033358402808233
  39    -1.00297308203e-15
  40    -0.026699335884968
  41    -0.026641945019283
  42    -2.0847098453877e-16
  43    -0.00051299720918735
  44    -0.078207866441104
  45      0.75744297359533
  46    4.5177807911239e-15
  47    -0.031595051314832
  48      0.28778148326907
  49    -1.2755316126457e-14
  50      0.62921569093474
  51     -0.86288681809798
  52    -0.034818358152188
  53    -3.592318929446e-16
  54     0.015798412678289
  55    -0.047593059412831
  56    6.5468269226222e-16
  57    0.0072924190144549
  58     -0.63885680334741
  59       1.6238461956349
  60    -3.9362321509543e-15
  61     0.044871217392172
  62     -0.10225669541961
  63    1.004498073486e-14
  64     -0.36176944660203
  65     0.054922856602907
  66     0.031070188219145
  67    1.8696528132688e-16
  68     0.013611993555508
  69     0.023029929926622
  70    5.6427790018201e-16
  71    -0.0029671383172147
  72     0.031416833761147
  73      -1.1317277635639
  74    3.122133670306e-15
  75     -0.18462207196248
  76    -0.076178671987008
  77    -8.1677097131018e-15
  78      0.11731513299114
  79     -0.25565268115556
  80     0.016035984774483
  81    7.9294999336553e-16
  82    -0.011492908025019
  83     0.037868223855645
  84    -6.7798227588684e-16
  85     0.021818514982944
  86      0.64428813317067
  87       -1.232220172198
  88    6.9623752530837e-16
  89      -0.1746648030681
  90    -0.048356283176332
  91    6.1605948706783e-16
  92       1.0637129403679
  93     -0.94820875911607
  94    -0.018299122956324
  95    -1.0806597986742e-16
  96    -0.038309581152704
  97    -0.092152737083065
  98    -1.6272588599649e-15
  99    -0.035565459884596
 100     -0.88428622410232
 101       3.2966381627983
 102    -2.6177879453962e-16
 103      0.07489243000775
 104     -0.28997969097027
 105    4.4302811815634e-16
 106     -0.48724358710209
 107      0.77477089184268
 108     -0.10535488181596
 109    2.5146028796047e-17
 110      0.05961022699086
 111     0.015241180723804
 112    -1.9673005983446e-16
 113     0.019676082367537
 114      0.67993424030754
 115      -1.7073262835552
 116    4.5923604357876e-17
 117     -0.19052086545789
 118    -0.054834348209461
 119    -1.9363553748601e-15
 120      0.58771204194034
 121     -0.51470973141934
 122     0.068406934601461
 123    -5.6555627573684e-16
 124    -0.0020484082539235
 125    -0.019272490615097
 126    -5.9938724825367e-17
 127     0.013927011607875
 128     -0.10128917250114
 129     -0.12082331158529
 130    -2.5474753778101e-15
 131     0.011275275520393
 132     -0.14170455174779
 133    2.7679565103572e-15
 134      0.19910829354644
 135     0.027981024325565
 136    -0.0087702691760241
 137    1.3018065173819e-15
 138      0.06687950468296
 139    -0.021389928714137
 140    1.9378716684588e-15
 141     0.017319940011942
 142     -0.14093626581009
 143     0.016828170840765
 144      0.36612005847958
 145     0.020143311396038
 146     -0.39474371352326
 147    -0.078661006691295
 148     -0.47638853638883
 149       0.4517181521433
 150       0.7040991947595
 151     -0.31941597508872
 152     -0.84044464519777
 153      0.35743069229561
 154      0.19361810609115
 155    -0.040554039145034
 156      -0.1261945761966
 Sym= A
 Ene=      1.29854764
 Spin= Alpha
 Occup=    0.00000
   1    0.00090092130089595
   2      0.36664967811878
   3       3.7826903102434
   4    2.9193807902925e-15
   5      0.57439752143838
   6     -0.36147140630452
   7    -1.0533007069036e-14
   8      -5.0411713021825
   9       7.9376064933091
  10     0.052528125754638
  11    -1.8958449617602e-15
  12     0.013019455082116
  13    -0.0051186677547168
  14    -1.906824957482e-15
  15    -0.0070764494949159
  16     -0.15825653457293
  17       3.4430890230281
  18    -4.4221643684166e-15
  19    -0.049008128119318
  20     -0.33361420722592
  21    1.4548567298475e-14
  22     -0.96910739391821
  23       4.8209766213617
  24    0.0026239168331204
  25    -3.6374604458269e-15
  26     -0.16622400060808
  27    0.0085861602684235
  28    -3.0883062163123e-15
  29    -0.025954776838542
  30     -0.95321252662561
  31       2.9151848427017
  32    1.9622701905416e-14
  33     -0.15756807590022
  34     -0.26164067273309
  35    -3.2525966212032e-14
  36       1.7074276581324
  37       1.5521969625522
  38    -0.080158947088108
  39    1.560329960528e-15
  40     0.091417208350275
  41     0.034251219668328
  42    2.1132150148013e-15
  43     0.012679513839351
  44      0.57221976802339
  45      -1.3341813966623
  46    1.3078127314707e-15
  47    -0.048061596051881
  48      0.10500166678946
  49    1.0779766746463e-14
  50       1.0230675554515
  51      -0.7282977826545
  52     0.035161782174396
  53    -1.5098838109982e-15
  54    -0.0022577503946999
  55    -0.0044444886401587
  56    -3.5188020847102e-15
  57     0.012334731447036
  58      0.21652650550047
  59      -2.2583457285308
  60    -3.9809580449387e-16
  61     0.051622456825093
  62      0.13466487663245
  63    -7.6039952818501e-15
  64     -0.80237683395354
  65      -2.6226335920364
  66    -0.0069795951254061
  67    -1.2404267004688e-15
  68    -0.084519723706251
  69    -0.0063722553230454
  70    1.5887503960656e-15
  71    -0.032294857405707
  72     -0.29648837275607
  73      -1.0762877634018
  74    -4.515346216342e-15
  75      0.18519879780166
  76      0.30636185034924
  77    1.5920945797763e-14
  78      -3.0559237490594
  79      -3.9798796303386
  80    -0.0018693121227005
  81    -2.1011118060195e-15
  82     0.044957524653193
  83     0.070165029350479
  84    2.199309598044e-15
  85     0.017846153477359
  86    -0.031122768747689
  87       4.8109955218073
  88    3.4780009343173e-15
  89     -0.13871684897118
  90     0.074511513626776
  91    -1.0812752760851e-14
  92       2.4023404762255
  93     -0.43755961417821
  94     0.030570298863786
  95    3.2855350157255e-15
  96     -0.06537173910342
  97    -0.056849841021773
  98    5.7754038522288e-16
  99    -0.0031420858832859
 100     -0.14398374683315
 101      -1.0844262244233
 102    -2.3431499673629e-15
 103     0.054755085922578
 104    -0.027871608451367
 105    4.3714989466181e-15
 106     -0.16522752406466
 107       1.0391078521106
 108    -0.040847634413742
 109    -3.7102813129415e-15
 110    0.0042352458525435
 111    -0.010063191395174
 112    -1.9736668294028e-15
 113    0.0060925879226067
 114     0.066810114424627
 115      -3.0502214661389
 116    -6.3039315002309e-16
 117    -0.082279831631266
 118     0.049506512932792
 119    -7.045919453384e-16
 120      0.54126085937502
 121      0.69071985698288
 122    0.0043230135145662
 123    -6.0733477783508e-16
 124    -0.0054507982433357
 125    -0.009246027127558
 126    1.2126176777113e-15
 127    0.0035738010170423
 128      0.10125462539229
 129      -6.5020087374833
 130    1.1933352754805e-15
 131     -0.27444724900401
 132     -0.18361787559537
 133    2.0459634807751e-15
 134       3.2606449051479
 135       5.7414722667057
 136    -0.036549706207176
 137    2.5735477053487e-15
 138    -0.017010754709058
 139     0.024276306868208
 140    9.450258672086e-16
 141      0.14116915980292
 142     0.072482306325214
 143     -0.30506426783047
 144      0.43265612975467
 145      0.13075019102433
 146      0.11996783900818
 147    -0.024417404541358
 148     -0.19149672988393
 149      0.12298638759386
 150      0.54930190991892
 151     -0.08196871612449
 152     -0.28595836855669
 153      0.25243734933161
 154     -0.10298381762731
 155     0.032082718747363
 156     -0.25628454354521
 Sym= A
 Ene=     1.323037981
 Spin= Alpha
 Occup=    0.00000
   1    -0.021571172483225
   2    -0.047614881996325
   3       4.4056467733303
   4    -8.9179429983552e-16
   5      0.14341913092426
   6      0.17540396248882
   7    2.2530396721236e-15
   8      -2.2090299885449
   9       3.0310577148461
  10     0.020089680854601
  11    7.6365310008394e-16
  12     0.042599900608692
  13     0.019716717009953
  14    -2.7086354127917e-15
  15    -0.012486620114518
  16     -0.46438651300095
  17       2.0052869748145
  18    -1.1100721233143e-15
  19     0.096496898181925
  20      0.11087303567931
  21    -3.4423463557523e-15
  22     -0.75381568060783
  23      0.94776158440844
  24    -0.020087532217269
  25    -2.9120299302335e-15
  26    -0.00084906297938018
  27     0.035277569133508
  28    -7.8690302069627e-16
  29    -0.0028804978343038
  30       0.1636932059279
  31     -0.46964918774035
  32    -1.1553509240422e-15
  33      0.12111632492338
  34    -0.039186282976672
  35    2.5958676210369e-15
  36      0.14555270356503
  37      0.54329354882834
  38    -0.057675768667087
  39    1.2953954117058e-15
  40    -0.021749905191851
  41    -0.010493376966536
  42    4.7789025962367e-15
  43    0.00024398336183815
  44      0.23955194697073
  45    0.0054693587415671
  46    1.4504518291927e-15
  47      0.15290519134652
  48      0.18437088373835
  49    -2.4201849504447e-15
  50    -0.016674178098437
  51     -0.76296137040714
  52    -0.0097685384322913
  53    -9.706503122459e-16
  54    -0.029460497941342
  55    -0.021611817088458
  56    -2.5094106421266e-15
  57    -0.0052725232365687
  58     -0.46744409534076
  59       2.2036688484485
  60    -3.1019345399157e-15
  61      0.14230619108182
  62      -0.2275979486344
  63    3.9915222320763e-15
  64     -0.21523818550101
  65      0.71205367666595
  66     0.048597276630264
  67    -1.4917624908838e-15
  68     0.021338953794433
  69     0.028056734010873
  70    2.8855357910823e-16
  71     0.017223495215184
  72      0.18919649836891
  73       0.1471580057313
  74    1.2058351224827e-16
  75    -0.016140178463895
  76     -0.30181269475136
  77    -3.5006493176052e-15
  78     -0.30027668589983
  79       1.8251115284871
  80     0.087043047897645
  81    9.7250751791673e-16
  82     -0.03199174191002
  83     0.021416558680569
  84    2.8963313444528e-15
  85    -0.030143763613698
  86      -0.3301730240016
  87        3.191110770674
  88    -8.8615683401226e-16
  89      0.16103180967529
  90     -0.63289550952716
  91    1.375822658793e-15
  92      0.88231796507223
  93        4.177621083657
  94    -0.039801147181844
  95    -3.4493758949545e-16
  96     0.041759114287181
  97     0.015881409421776
  98    1.5516959691202e-15
  99     0.013711873757711
 100      0.58756806592186
 101      -4.9340125106054
 102    8.8027247425112e-16
 103     -0.27382978615063
 104     -0.11613599506747
 105    -1.2663373797097e-15
 106       2.4303750662628
 107       1.7893767248069
 108    -0.019462689535033
 109    5.0735115359098e-16
 110    -0.094779013955296
 111     0.013249833079912
 112    -1.4022224676189e-15
 113    -0.0024130262147339
 114     0.066700890738165
 115      -4.5323630460741
 116    1.1484532549575e-15
 117    -0.091309801863253
 118     0.018781076213516
 119    -4.2546357140694e-16
 120       1.1194642282379
 121      0.91658624263194
 122    -0.036814415307562
 123    1.3666293288096e-15
 124    -0.0055554541673459
 125     0.036942717585859
 126    1.4113525189632e-15
 127     0.022927509564609
 128     -0.49087407893614
 129      -1.3522304278566
 130    -5.4998715729638e-16
 131     -0.17690457472162
 132     -0.36406712495456
 133    6.9108286775205e-16
 134       2.3678845478062
 135       5.5840175156198
 136     0.037793154688082
 137    -1.3719348320015e-15
 138    -0.019404898991467
 139    0.0072341094691502
 140    -1.1570813965391e-15
 141      0.11044907530053
 142      0.11592347224971
 143    -0.022367790889906
 144      0.60550438154449
 145    -0.023450305321347
 146     -0.30240249165323
 147     -0.27202056190568
 148     -0.33962117518322
 149    -0.050052788174626
 150     -0.48323571897295
 151      0.42867494466795
 152      0.22051461453414
 153      0.36018368282389
 154     -0.29876879775271
 155     0.013911700139055
 156     -0.17051993817934
 Sym= A
 Ene=     1.372913948
 Spin= Alpha
 Occup=    0.00000
   1    5.2052876303137e-16
   2    6.7820384867471e-15
   3    1.4035880291033e-13
   4     0.084334632809187
   5    2.7311492753077e-15
   6    -1.1783656010091e-14
   7    -0.085865552552796
   8    -3.4974544159077e-14
   9    8.6942427175525e-14
  10    1.2884359974222e-15
  11    -0.050222435615636
  12    8.0872573335354e-16
  13    -4.6371196550218e-16
  14      0.32103864656627
  15    -6.2457900582116e-16
  16    -4.6324709260493e-14
  17    1.8555379570673e-13
  18    -0.012508681257358
  19    -3.2882498924401e-15
  20    -1.6092933318393e-15
  21    -0.029215382630855
  22    8.4985740536571e-15
  23    -3.8557130910168e-14
  24    2.6294376710084e-15
  25      0.12704495969392
  26    -1.9986791425526e-16
  27    3.8686076604183e-15
  28    -0.0079922293063952
  29    -9.5132214211048e-16
  30    6.6800617142851e-15
  31    8.8201117977189e-15
  32    -0.0025493744332653
  33    1.549740483675e-14
  34    7.7015789641811e-15
  35      0.01466738365469
  36    -8.6030566679301e-14
  37    -8.1452929126521e-14
  38    -8.7311074181076e-16
  39    -0.052606507410778
  40    -2.7112135481109e-15
  41    -4.9975274261051e-16
  42    -0.067558500466801
  43    5.7885955568824e-16
  44    1.4740881666197e-14
  45    -1.1289271774973e-13
  46    -0.0035368802708671
  47    -1.5824357740928e-15
  48    4.496501847087e-16
  49     0.059870131217721
  50    -2.0065923464323e-14
  51    1.2569352359451e-14
  52    1.6682101474253e-15
  53    -0.064764265358322
  54    3.2347868789611e-15
  55    2.2800273013741e-15
  56      0.07642731152555
  57    -2.7881667963719e-16
  58    -6.9543021905755e-15
  59    1.2255503367387e-14
  60    -0.0010341303614134
  61    -1.4025329972128e-15
  62    8.7132478847666e-15
  63      -0.1193584676214
  64    2.4558072986505e-14
  65    -3.4728950443752e-14
  66    -1.4240140057805e-15
  67      0.14146254115621
  68    -1.8021830952591e-15
  69    -6.5860766856618e-17
  70     0.007349120003704
  71    -2.7090452774042e-16
  72    -5.9596065295668e-15
  73    3.6867958307978e-14
  74    -0.014708599882182
  75    6.4678491745964e-15
  76    2.0808617113035e-15
  77      0.20761978059087
  78    -4.1244092186718e-14
  79    1.9550977666364e-14
  80    1.017080948683e-16
  81    -0.033162807506115
  82    -1.051400867237e-15
  83    2.551313678307e-16
  84     -0.32915530527485
  85    1.4019314484732e-16
  86    -9.4830558004289e-15
  87    5.7816370762592e-14
  88      0.22533081405442
  89    -3.4549279262025e-15
  90    -3.0098834853125e-15
  91     -0.24132311942119
  92    5.0052176820375e-14
  93    5.5187065723835e-14
  94    -4.6948934454275e-17
  95      0.01495747839251
  96    9.5458149365422e-16
  97    -3.240265794573e-16
  98     -0.39630460767187
  99    5.1663403902025e-16
 100    1.1637999968437e-14
 101    -1.2274299685375e-13
 102     0.079288316992406
 103    -4.9579717363079e-16
 104    -7.4127646575811e-16
 105     0.060060807968587
 106    2.2319610714387e-15
 107    6.3093280815522e-14
 108    -6.9772679868884e-16
 109      0.15111009259882
 110    8.4537115604396e-16
 111    -2.6550772443587e-16
 112    -0.031514339598233
 113    1.8003086646826e-16
 114    2.515401803221e-15
 115    -1.0113418499129e-13
 116    -0.091709277205125
 117    -4.4197694875379e-15
 118    1.0520471522296e-15
 119    -0.066532588753243
 120    2.8583240009621e-14
 121    3.4730417637122e-14
 122    3.714298300201e-16
 123     -0.17915678103642
 124    -2.6321271448847e-15
 125    6.158812943529e-17
 126    -0.050641512067832
 127    -8.1238032843764e-16
 128    8.5336290569786e-15
 129    -2.9294313884054e-14
 130     0.078442403076099
 131    -5.3537506824247e-15
 132    -1.8436697260553e-14
 133     0.093362895236524
 134    4.9189765932042e-14
 135    1.8596828874874e-13
 136    -2.1870901210616e-15
 137     0.034692931320522
 138    -4.058364160178e-16
 139    -1.0121263319247e-15
 140      0.42685830140772
 141    -1.1407626724228e-14
 142    -2.5553433826529e-14
 143    1.3243069668483e-14
 144    -9.3795417576061e-14
 145    7.6158813959387e-15
 146    8.5393363098532e-15
 147    4.033161548966e-15
 148    5.3854873643675e-15
 149    -3.6731233821721e-15
 150    8.8396954540312e-15
 151    7.9121639789055e-16
 152    -9.8862417128156e-15
 153    5.2401551083323e-15
 154    -1.0826358042708e-14
 155    8.6162290024904e-16
 156    4.5338544380297e-14
 Sym= A
 Ene=     1.372978933
 Spin= Alpha
 Occup=    0.00000
   1    0.0065178378835046
   2      0.28854954151556
   3       1.3266686369226
   4    -3.9805444654389e-15
   5      0.07557243273043
   6     -0.11449256493133
   7    9.5441319080995e-15
   8      0.65761979859349
   9       1.0626476252704
  10     0.042814072490955
  11    2.153968281273e-15
  12    -0.032980740100658
  13     0.017700545390888
  14    -8.230847605711e-15
  15    -0.0088402190516554
  16      -1.1654442515339
  17       3.9314679505316
  18    5.0294148563072e-16
  19    -0.041016574360185
  20      0.21235603096359
  21    -1.2339296783608e-14
  22      0.26371866748578
  23      -2.0901895409219
  24     0.067316856333919
  25    -3.3314800383191e-15
  26     0.022451267914721
  27      0.10037240994512
  28    1.7052169887347e-15
  29    -0.017218985570095
  30      0.30488743634532
  31     -0.11604054580493
  32    -1.2540727123938e-14
  33      0.29331972439578
  34      0.29009167502399
  35    1.9128928855675e-14
  36      -2.7704292754934
  37      -1.6782720434664
  38    -0.057923619792426
  39    2.6385867867941e-15
  40    -0.041965589734194
  41    -0.0063224673316563
  42    3.1702971444523e-15
  43      0.01054473070793
  44      0.24836084796737
  45      -1.9159880740967
  46    6.0825678307211e-15
  47    -0.0086555550831306
  48     0.065104463109658
  49    -1.3190333410254e-14
  50      -1.6138334272118
  51     -0.11850360404165
  52     0.023707205084757
  53    1.4463996652148e-15
  54    -0.001749860039806
  55     0.028163802281676
  56    -1.9983061312508e-15
  57    -0.005160852573696
  58      0.18483290393291
  59       0.2642363928545
  60    -1.0615211369925e-15
  61      0.10047180339621
  62     0.089928591648385
  63    7.1913181990846e-15
  64      0.51624439060858
  65      0.63314318609394
  66    -0.020973702923101
  67    -3.1374435819784e-15
  68    -0.047741415807451
  69    -0.022799215329129
  70    4.8987661510846e-16
  71    -0.033048925209827
  72     -0.56613377639459
  73       1.4882178203857
  74    4.7316920817819e-16
  75    -0.052236335071702
  76      0.19504908604933
  77    -9.0543053436279e-15
  78       1.2656591042419
  79      0.85652976254741
  80    -0.033376689174061
  81    -1.0203129507403e-15
  82     0.018659752830117
  83     0.047565527919349
  84    8.0196866261586e-15
  85    0.0062285594087434
  86    -0.024837928479011
  87     -0.40923209992819
  88    -4.6075778019385e-15
  89    -0.043925043857939
  90      0.17378382795976
  91    6.6413742252289e-15
  92      0.38369207125937
  93     -0.08509279022774
  94    -0.017549032373614
  95    1.1863984407269e-15
  96    -0.0072404825604684
  97    -0.032822599185724
  98    1.0397035162791e-14
  99    -0.013666839080334
 100     -0.21804151337239
 101      0.19425689527916
 102    -1.2060398473366e-15
 103    -0.032259993411818
 104    0.0054810230787602
 105    -2.08585481168e-15
 106    -0.051518772579685
 107    0.0043215224863431
 108     0.017914884596317
 109    -2.8765001862675e-15
 110     0.010412019636099
 111     0.037685700745678
 112    -1.8560347666758e-15
 113    -0.0050148786169425
 114     -0.30028612509778
 115     -0.21808133437815
 116    3.7881801271224e-15
 117    -0.015376882067201
 118      0.15237963601403
 119    1.5884165448793e-15
 120     -0.26743435457981
 121     -0.72158120622123
 122     0.053513243873631
 123    5.0741587219694e-15
 124     0.011707219120254
 125     0.029213799895069
 126    3.3086357030276e-15
 127     0.022342717112117
 128      0.64580510024245
 129      -3.4934920695947
 130    -1.3759438405177e-15
 131    -0.087730440107087
 132     -0.22252692332567
 133    -4.5571689450364e-15
 134      0.64192196954993
 135        1.997679847498
 136    -0.059829300441546
 137    -2.9336578207508e-15
 138    -0.018311330005808
 139    -0.032016534386046
 140    -1.0278692381736e-14
 141     -0.27048584497629
 142     -0.57897132581742
 143      0.34424698517642
 144        -1.72949082767
 145     -0.20457003170131
 146     -0.16011457654951
 147       0.2214066264264
 148     0.096630228505871
 149     -0.01288644603543
 150      0.34011829044217
 151      -0.0395195142865
 152    -0.0073832768782545
 153      0.23058062887957
 154      0.30946622083833
 155      0.39681248011038
 156      0.72517948527419
 Sym= A
 Ene=     1.377979736
 Spin= Alpha
 Occup=    0.00000
   1     0.017073326134094
   2     -0.31577900061861
   3       6.3078046660667
   4    -9.0011978974249e-16
   5    -0.066533974188504
   6     -0.47711874102855
   7    5.7924369328949e-15
   8     -0.48839243671409
   9       1.9152443170612
  10     0.048618671734936
  11    -1.6041703596623e-15
  12    0.00022802971039708
  13     -0.06088037247663
  14    -5.9716701127259e-15
  15    0.0075831860220335
  16    -0.073053907713127
  17     0.079881835383819
  18    -2.5332472305553e-15
  19    -0.032295518322592
  20     -0.10772635803272
  21    -5.2127354953305e-15
  22      0.82018595903182
  23     -0.37934159656491
  24     0.044145975370638
  25    -2.2272022586962e-15
  26    -0.023784580718317
  27     0.028970807393745
  28    -1.0943313230836e-15
  29    -0.0028773808181801
  30      0.31186924229557
  31     -0.87268031454058
  32    -5.2285819616378e-15
  33     0.012452430757995
  34     -0.12498086732219
  35    1.2205958661731e-14
  36     -0.59319386047106
  37      0.76055878910259
  38     0.012954500176749
  39    1.3522181912488e-15
  40     0.016722884510977
  41    0.0087069139425804
  42    -4.6780824538878e-16
  43    -2.269572115547e-05
  44     -0.29572843335083
  45     -0.61006849699948
  46    4.2744119061744e-15
  47     -0.19069016401131
  48    -0.077955824286984
  49    -8.5265953969789e-15
  50      0.49110979067186
  51     -0.27487285131139
  52    -0.028858785966652
  53    1.6480707344551e-15
  54     0.022304323768966
  55     0.015787449235514
  56    -1.340210062813e-16
  57    0.0024276567350303
  58     0.072941372904974
  59     -0.91344658329137
  60    -7.2731555522542e-16
  61     -0.13027342544275
  62     0.097522604132032
  63    5.7117425973659e-15
  64      0.77043717897904
  65      -1.3748263328148
  66    -0.056706075354599
  67    -1.5445009793969e-15
  68    0.0096194445385899
  69    -0.047579461812427
  70    9.1690984145975e-16
  71     0.011906999045923
  72      0.18321198506114
  73     -0.24690670036853
  74    2.2103636127645e-15
  75      0.38824909919443
  76    0.0019593946275813
  77    -9.2182691274353e-15
  78      -2.3751767302058
  79     -0.68661507359326
  80     0.043646061967201
  81    -2.2330177531366e-15
  82     -0.06294552061047
  83    -0.023200669571695
  84    5.7183911941042e-15
  85     0.012643588838677
  86      -0.2517361850373
  87       2.4818591591934
  88    -2.5607159877227e-15
  89     -0.11250581369158
  90    -0.097100661314041
  91    5.3534831864226e-15
  92          0.7466650341
  93       1.0098298788884
  94     0.091955342208696
  95    2.8904955940492e-15
  96    0.0059855171995771
  97     0.017702684197588
  98    6.261896848948e-15
  99     0.030503593741244
 100      0.71265561092455
 101       -5.191280303512
 102    -3.2752229014978e-15
 103     0.011447633399602
 104     -0.18148187447093
 105    -1.6719215976654e-15
 106     -0.71458642776415
 107       3.8902406826792
 108     -0.13142504514768
 109    -5.4837649033671e-15
 110     0.093386724828918
 111    -0.091794310870885
 112    -8.2551746291502e-16
 113     0.022867139450546
 114      0.84764481672718
 115      -5.6351508769422
 116    4.1204895597432e-16
 117     -0.16055906790564
 118     -0.23785663524522
 119    1.0487368205281e-15
 120       2.2161090934025
 121       2.8977008851886
 122    -0.098970452391566
 123    3.085494435322e-16
 124     -0.11946036145873
 125    -0.059618119066882
 126    1.3734746308055e-15
 127    -0.074244459975275
 128     -0.69990908596628
 129       5.8628226229994
 130    -3.052975403207e-15
 131     -0.24931227964393
 132     -0.59832045700296
 133    -1.7753803763556e-16
 134      0.32092625122029
 135       7.5137621724436
 136      -0.0148393511495
 137    4.2039227962286e-15
 138     0.068731223311355
 139     0.052935269009021
 140    -5.0803922851375e-15
 141     -0.27471438244107
 142     -0.24848036772794
 143      0.11982241413042
 144      0.80645173220756
 145     0.029896104132044
 146     0.022489841971952
 147      0.19487889236189
 148      0.35715766212601
 149     -0.21383058966933
 150     -0.14837125885671
 151     -0.18920635885944
 152     -0.99501689289174
 153     0.011026957457387
 154      -1.0169471659539
 155      0.11224992054849
 156     -0.24413968836208
 Sym= A
 Ene=     1.398604136
 Spin= Alpha
 Occup=    0.00000
   1    -0.0062040242923865
   2      0.45664325993761
   3       1.3590926048156
   4    -2.8091270882635e-15
   5     0.039020656301681
   6     -0.36687799643009
   7    1.1475016674807e-14
   8     -0.92368044489571
   9       3.7023428014539
  10    0.0028906866723762
  11    1.5656618326372e-15
  12      0.01598902209027
  13    0.0040345358753254
  14    -2.8009015024079e-15
  15    -0.028586570382169
  16     -0.41970695375707
  17         3.27926839916
  18    -1.8765868918408e-15
  19    -0.097603256053801
  20     0.074744393315813
  21    -8.2026842235165e-15
  22     -0.46002604927195
  23     0.090721770070625
  24     0.022321474688021
  25    -3.7273595668981e-15
  26    -0.084945306726234
  27     0.073894183550687
  28    -1.1689854565781e-15
  29    -0.0043327807185071
  30     -0.14118568685809
  31     -0.79815655604497
  32    1.4570931027159e-17
  33      0.21841637151947
  34     -0.34348041737465
  35    5.8371652114125e-15
  36      -1.2977420500254
  37      0.53734676485483
  38    -0.055679754281168
  39    4.1555425712235e-16
  40    -0.016609838560719
  41     0.067262519280744
  42    4.3553350963325e-15
  43    0.0089654102471778
  44     0.071805954463189
  45      -1.7269168034641
  46    1.5269327538724e-15
  47    -0.090596779869116
  48     -0.25277826127912
  49    -3.8178003245722e-15
  50      0.49593725924636
  51       0.5525413710912
  52    -0.013000841009507
  53    -1.8595700909472e-15
  54     0.042669621949484
  55     0.073991188977768
  56    -4.5897562133451e-15
  57    -0.030343314098019
  58     -0.71302149430282
  59       3.9711732438465
  60    -7.7909804039272e-16
  61     0.079867082750069
  62    -0.030521001459602
  63    4.8349249264047e-15
  64      0.48127900411288
  65      0.63210458388367
  66     0.029975225775556
  67    -1.2222681225254e-15
  68     0.080321097413664
  69     0.083107297804754
  70    -1.7585523133298e-15
  71    -0.0072530892658971
  72       0.2719536257751
  73     -0.78938053795194
  74    4.4778526810675e-16
  75     -0.24037150308222
  76     -0.55833834122867
  77    -9.2895942842863e-15
  78       1.0176263854729
  79       3.4186062470401
  80    -0.0074450561437775
  81    1.7481787038493e-15
  82    -0.023720003037509
  83    -0.0044973829957678
  84    2.2847642184676e-15
  85    -0.0054500556179189
  86    -0.088808361348427
  87      -1.5122236506065
  88    -1.4687062889248e-15
  89      -0.1389335729946
  90    -0.052884682295232
  91    6.420915711435e-15
  92       1.7039026722777
  93      0.32536436472517
  94     -0.11640171198425
  95    -1.6782796959801e-15
  96     0.036586472551202
  97    -0.033505160495177
  98    8.4614652317356e-16
  99    -0.0095451640274891
 100      0.18409616204076
 101     -0.43082845378834
 102    7.9036681372542e-16
 103     0.073683215755001
 104     -0.09102076791898
 105    -2.3119264356796e-15
 106     -0.94639757815307
 107     -0.10380430853957
 108    0.0041126152284684
 109    1.9368435666589e-15
 110    -0.010359197680564
 111    0.0073749519866998
 112    1.417217777174e-15
 113    -0.00087533855339403
 114    0.0094515788049017
 115     -0.73628878603861
 116    5.5681230513041e-17
 117    0.0026661104807054
 118     0.046755475390842
 119    1.6368060185035e-15
 120      0.18491754855993
 121          1.2590641673
 122      0.02209826912103
 123    1.4391626049521e-15
 124    -0.054550323684307
 125    -0.027561856355151
 126    -7.4345014820574e-16
 127     0.028922435978424
 128      0.15462745879965
 129      -3.8646711482477
 130    1.4020255086619e-15
 131      0.15794052582803
 132      0.14850433228666
 133    -5.8441573637732e-15
 134       1.9730961812581
 135       2.7725596376092
 136    -0.034870089481679
 137    -1.385992931511e-15
 138    -0.028174623167286
 139    -0.015891379867653
 140    -2.48648581478e-15
 141    -0.094600111529067
 142    -0.095845004178252
 143      0.13826513162594
 144      0.84968328982141
 145      0.35718649129688
 146      0.57172760920701
 147     -0.14969239329673
 148     -0.23930561636554
 149      0.36446850346944
 150      0.66595125951283
 151    -0.092617378280453
 152     -0.10346918707172
 153     -0.32645663794719
 154     -0.28320728902513
 155     0.062521196098669
 156     -0.11029080461755
 Sym= A
 Ene=     1.419902777
 Spin= Alpha
 Occup=    0.00000
   1    5.3499653744924e-16
   2    -1.4179355537998e-15
   3    -7.732644364665e-14
   4     -0.17762586694558
   5    1.2528603031529e-15
   6    -9.2408157669152e-15
   7     0.055592115693365
   8    5.5756854855664e-14
   9    -6.0740568032699e-14
  10    -4.8558421276784e-16
  11      0.30280993503432
  12    -1.7279358716835e-15
  13    -2.6825498462844e-15
  14    -0.009231355159269
  15    9.7793484975058e-16
  16    1.3558664386284e-14
  17    -9.9764210136557e-14
  18     0.066095234494615
  19    4.7308968316038e-15
  20    -1.2906498776532e-16
  21    -0.013737390069193
  22    1.810687279101e-14
  23    -1.1735931685567e-14
  24    1.7118286012486e-15
  25     -0.16241987787062
  26    5.5198848807766e-16
  27    1.3283281578595e-17
  28     0.094472536609915
  29    -2.9180721262555e-16
  30    -1.2577183323202e-14
  31    4.4969959451857e-14
  32    -0.023222997869404
  33    -4.0248213115504e-15
  34    -2.3886554207451e-15
  35    0.0089338685682791
  36    -8.5797187240532e-15
  37    4.2978815633782e-14
  38    -6.2952538155771e-18
  39     0.046581328893858
  40    3.3889051910039e-15
  41    -3.7572600162221e-16
  42     0.089376635312937
  43    2.871400687419e-16
  44    -1.8717129755621e-15
  45    1.8759125940186e-14
  46    -0.020186301713612
  47    -4.0669625357452e-16
  48    5.6247313655653e-15
  49     0.023264626918668
  50    -2.6016661181896e-14
  51    -2.0844731992037e-14
  52    2.4123950860676e-15
  53     0.045254515048401
  54    -3.1918530292935e-15
  55    -2.2297548814116e-15
  56     -0.09167665419952
  57    6.0702967215059e-16
  58    1.7907175412091e-14
  59    -8.6467285401067e-14
  60     0.044637890087024
  61    2.821760086895e-15
  62    -6.1737685259394e-15
  63    -0.034130445756808
  64    -3.4693161162333e-14
  65    1.4169819629159e-15
  66    1.4083969716303e-15
  67     -0.13985319014687
  68    -2.6055384414189e-15
  69    -2.3104748741799e-15
  70    -0.072535430824537
  71    -5.3368278739021e-16
  72    -9.8749691372318e-15
  73    4.1004898594381e-14
  74     -0.12743158855849
  75    2.6631151007625e-15
  76    9.3370663346383e-15
  77       0.1167493100878
  78    1.1740076991888e-14
  79    -9.0568586681799e-14
  80    -1.5859247330145e-15
  81      0.25559277964661
  82    7.9896898377006e-16
  83    -1.9265458192593e-15
  84    0.0060192675342946
  85    4.8961465378068e-16
  86    -2.3959383229217e-15
  87    2.6222585572713e-14
  88     0.019120259035874
  89    -1.6207262359785e-15
  90    -2.5214939629099e-16
  91    -0.092189594290614
  92    -2.3201277335222e-14
  93    -3.1197803394248e-14
  94    2.1899719840792e-15
  95     -0.25130493167148
  96    -1.0894274313229e-15
  97    -7.7286197785099e-16
  98     -0.10058256334146
  99    3.5540400237059e-16
 100    6.4400228832874e-15
 101    -8.4648276208273e-15
 102      0.23573474575918
 103    3.9504274087947e-15
 104    -4.9650998465699e-15
 105    -0.032101881431478
 106    -2.1223446451065e-14
 107    2.4145596143841e-14
 108    -2.6452427508953e-15
 109       0.3899558928019
 110     1.12240551691e-15
 111    -1.639784841657e-15
 112    -0.030896983684186
 113    4.0350806047563e-16
 114    1.3362875800618e-14
 115    2.0683515315863e-16
 116      0.12713810733011
 117    -1.1941277801135e-15
 118    -7.043890170327e-15
 119      -0.1108988917648
 120    1.4378079553954e-14
 121    2.5602015825213e-14
 122    -2.1367537076717e-15
 123      0.15246226681841
 124    -1.3535041990599e-15
 125    -1.8613092828498e-15
 126     0.052925870670311
 127    -1.0485757620575e-15
 128    -1.4693558209076e-14
 129    1.7165680101717e-13
 130     0.041205842860768
 131    3.8417144883555e-15
 132    -5.622524971176e-15
 133      0.03950459177104
 134    -5.1644386338976e-14
 135    -4.0433052458101e-14
 136    -1.7817766946472e-16
 137     -0.34933588654045
 138    1.9756997786613e-15
 139    -2.0768019107396e-16
 140     0.099363529120836
 141    -1.2385190122545e-15
 142    7.4377324709099e-15
 143    -4.2575586146909e-15
 144    3.2752305005502e-14
 145    -6.6003244094261e-15
 146    -1.7375961457783e-14
 147    -1.3654697396275e-15
 148    -4.5335499264018e-15
 149    4.2816628641162e-15
 150    -9.6782669952815e-15
 151    1.5133167668798e-16
 152    -1.3821199377188e-14
 153    -4.268677799418e-15
 154    -1.2597404098398e-14
 155    1.316526760226e-14
 156    -2.1477918877417e-14
 Sym= A
 Ene=     1.448567563
 Spin= Alpha
 Occup=    0.00000
   1    -0.037815020608908
   2      0.17442524775629
   3       2.0966370081974
   4    -1.9823332008464e-16
   5      0.29891762449899
   6       0.1539139662368
   7    -1.3773616254534e-15
   8      -3.8931296269822
   9       1.3462050959811
  10    -0.043013277063128
  11    4.1543459393294e-15
  12    -0.021222178058797
  13     0.019107311026843
  14    1.8725403042324e-15
  15    -0.0058777761827103
  16     0.099993883400581
  17     -0.78292382292042
  18    -2.4417087572511e-15
  19    -0.049915095687842
  20     -0.12773665057601
  21    -5.9292337623605e-15
  22       1.1988529123043
  23       2.9646215730418
  24     0.028910051296043
  25    -4.5828848609565e-15
  26    -0.042941969992757
  27     0.081508233594154
  28    -3.7820335213126e-16
  29     0.012449335400224
  30      0.98216190001985
  31      -2.1392945722813
  32    -5.3925052820143e-15
  33     -0.21987170292026
  34     -0.56772273025359
  35    1.3688171809501e-14
  36       1.6128095653184
  37       4.2165129746456
  38    -0.014782522043503
  39    -1.8624849420072e-16
  40     0.079267308639897
  41    -0.0025574618166016
  42    3.4809579471166e-15
  43    -0.016038647399788
  44     -0.63084062277785
  45       1.5946259917373
  46    7.4659241031321e-15
  47      -0.1116229693125
  48     -0.13152673321043
  49    -3.292348894256e-15
  50        1.073953243601
  51      -1.7531423278361
  52     -0.14811494201829
  53    -7.6170676407757e-17
  54    -0.060846865578111
  55    -0.0040207595762848
  56    -5.756767306498e-16
  57    -0.0090176827512169
  58     0.016467907563384
  59       2.1097591286067
  60    -3.4517241270696e-15
  61    -0.0091299942667568
  62     0.062609020733331
  63    -7.1874982867294e-16
  64       1.8234919480935
  65     -0.29980781368098
  66    -0.021301653644705
  67    2.8942899877364e-15
  68     0.075621754401585
  69    -0.033824644633382
  70    3.8113644918772e-15
  71     0.023380844855425
  72      0.16731935724684
  73      -2.4615662246852
  74    5.4590506748136e-16
  75     0.010635645920677
  76     -0.16800753192449
  77    3.3104103377018e-15
  78      -1.8475220430353
  79       2.5944307098936
  80     0.060626289053727
  81    -5.0737085665677e-15
  82    -0.019193760623961
  83     0.036850479759552
  84    -1.4658275833365e-15
  85     0.001738128995164
  86      0.13872524377528
  87     -0.87245420865513
  88    4.5061123272781e-15
  89      0.12729859375092
  90     0.083621111746455
  91    -7.1233834677309e-15
  92      0.33615139775908
  93       1.1769785202211
  94    -0.027913060730996
  95    6.8092583756307e-15
  96     0.020809470063034
  97    0.0033444155688392
  98    -3.0961234770035e-15
  99    0.0037944916813479
 100     0.043539971330839
 101     -0.65856621414029
 102    3.7927906483079e-15
 103    0.0081341335588598
 104     0.022310933949074
 105    7.8176224270128e-16
 106     0.039257843782012
 107      0.40747069956414
 108     0.049204293503102
 109    1.7852363019074e-15
 110     0.029359079340272
 111     0.013471936587972
 112    -1.2887933103278e-14
 113    -0.0029555173497361
 114     -0.51599427203292
 115      0.65916990627896
 116    5.2866951846269e-15
 117       0.0279698385153
 118      0.27372253339643
 119    -4.2917205278459e-15
 120     -0.76632284705785
 121      -1.3114439163461
 122     0.063709335467893
 123    -6.3256960946898e-16
 124     0.025459425132049
 125    0.0010313595008333
 126    9.7284747178179e-15
 127     0.015074258882318
 128     0.057382117942598
 129      -2.8801565183608
 130    2.5041223309905e-15
 131    -0.036008344516059
 132      0.19907196104789
 133    4.0718303170534e-15
 134       1.1128173028537
 135      0.48555066462806
 136    -0.0043471348040574
 137    -7.8136403265814e-15
 138    -0.066222674833497
 139     0.014839158203354
 140    6.8875501911431e-15
 141     -0.24569924190707
 142     -0.25274706609263
 143     -0.21288459903303
 144       4.8837471977124
 145     -0.34850596488175
 146     -0.43710703472196
 147      0.29198672120221
 148      0.52642149867565
 149     -0.12454375574142
 150     -0.16993836365023
 151     -0.12018961140314
 152    -0.045577300436561
 153      0.26843821255213
 154      0.53093298544493
 155    -0.076062438102042
 156      -1.8039096537661
 Sym= A
 Ene=     1.485073245
 Spin= Alpha
 Occup=    0.00000
   1    1.4696651108717e-15
   2    1.0552131185099e-14
   3    -3.179894248063e-13
   4     0.042080240596522
   5    9.6836639893004e-15
   6    -1.822664740213e-15
   7      0.20122455835619
   8    2.5260469829715e-15
   9    -2.4674699411982e-13
  10    -3.6107265082318e-15
  11     -0.12719194024489
  12    -2.8907846978877e-15
  13    -3.8065555038756e-15
  14    -0.014610850013212
  15    8.9751440013182e-16
  16    5.8080034102804e-15
  17    -2.1614521229549e-13
  18    -0.037944611747201
  19    1.1274879592226e-14
  20    5.8742874546878e-16
  21    -0.090661280304051
  22    9.1513204794473e-14
  23    3.0999650089043e-14
  24    3.4658860034519e-15
  25     0.071784310879327
  26    -8.0943412385928e-16
  27    4.4037498289222e-15
  28    -0.071247611629171
  29    -1.4583210329787e-16
  30    3.3729057072754e-14
  31    -6.7809035913819e-14
  32    0.0043491904418549
  33    4.5769460627638e-15
  34    -3.5045103098925e-14
  35     0.092610480239575
  36    -5.1354135595154e-15
  37    2.516401424261e-13
  38    -1.6634055059969e-15
  39    -0.014863146651884
  40    6.2424356085566e-15
  41    -2.1200199723732e-16
  42     0.014308964400218
  43    -1.1615523416293e-16
  44    -1.4040618176403e-14
  45    4.6292187478991e-14
  46     -0.01345044041491
  47    -9.8326654459309e-16
  48    4.0204179073331e-15
  49    -0.082132884323187
  50    1.6171372387135e-15
  51    -1.1675717451206e-13
  52    -3.5902149671384e-16
  53     0.060141906381162
  54    -6.8802678635613e-15
  55    -1.8283551547055e-15
  56    -0.063513508280045
  57    9.1690879263989e-16
  58    2.2915715328796e-14
  59    -1.4280019761361e-14
  60     0.052477580869646
  61    7.7855719946449e-15
  62    -7.0061124862777e-15
  63       0.0804144720141
  64    -8.9040951938139e-15
  65    -1.7373581759156e-14
  66    2.9603143511179e-15
  67      -0.1783248738727
  68    -2.4908881907751e-15
  69    -4.2677851622761e-15
  70    -0.099733345943245
  71    -1.1232966423039e-16
  72    -4.8039411787562e-15
  73    7.2883305273221e-14
  74    -0.050408844732935
  75    1.5388059350668e-15
  76    1.1103634353174e-14
  77     -0.20159193476285
  78    -2.6252855888506e-14
  79    -7.2241407675295e-16
  80    -1.0848602518529e-15
  81      0.22752022256422
  82    2.0906425313201e-15
  83    -2.9332154598043e-15
  84     0.036461041727883
  85    3.8963734446134e-16
  86    -1.1890611686343e-14
  87    -5.8729053835561e-14
  88    -0.050329190073342
  89    -4.5581319822853e-15
  90    2.2436551067917e-15
  91      0.23928707202891
  92    7.1127377903975e-15
  93    4.803071429506e-14
  94    5.9162951179246e-16
  95     -0.30180348620484
  96    -2.1635758199042e-15
  97    -1.550538251213e-15
  98    -0.083422043710824
  99    2.0978720164314e-17
 100    -2.64248114884e-15
 101    7.5279592760551e-14
 102    -0.063930452261092
 103    4.2730549622632e-15
 104    -2.877520174849e-15
 105    -0.043876843638295
 106    3.8888010274365e-14
 107    -6.7041273043097e-14
 108    7.3222362952203e-16
 109     0.041770325623122
 110    -2.7685258877816e-15
 111    6.0092897198595e-17
 112      0.47784581043959
 113    -1.1299228858156e-16
 114    -1.0757917209165e-14
 115    2.0820204749886e-13
 116     -0.23163404925588
 117    -7.3100209819326e-16
 118    -3.1019067227393e-15
 119      0.15512576144893
 120    -6.746697924545e-14
 121    -8.8550502162645e-14
 122    1.2107141135001e-15
 123    -0.028239524985301
 124    1.696060334745e-15
 125    -1.0279692016098e-15
 126     -0.40313410852102
 127    -3.3430392828069e-16
 128    -6.7016290404414e-16
 129    1.0219632803389e-13
 130    -0.015631918433977
 131    7.0037884771521e-15
 132    4.3592158094513e-15
 133     -0.21182345556857
 134    -6.0860852557953e-14
 135    -3.9498766941762e-13
 136    1.3877489309238e-15
 137      0.23917128213008
 138    1.1739354774763e-15
 139    6.3712616559847e-16
 140    -0.044453944778236
 141    -1.2145872134822e-14
 142    -5.5112773116098e-15
 143    -8.0103413566848e-15
 144    2.7056475986875e-13
 145    -2.4442361412504e-14
 146    -4.5350191724361e-14
 147    1.0036644362069e-15
 148    -1.8424435147626e-15
 149    8.1184689846643e-15
 150    -4.8631399374073e-15
 151    1.1140234162638e-14
 152    1.9010311191426e-14
 153    3.2609487258737e-15
 154    2.1541520053088e-14
 155    1.3805317305138e-14
 156    -1.0270024876551e-13
 Sym= A
 Ene=     1.485154413
 Spin= Alpha
 Occup=    0.00000
   1    -0.038764488365896
   2      0.10032034433571
   3       3.9912972859101
   4    -1.7906110754256e-15
   5     0.050880073722801
   6     0.070475283969629
   7    -5.747002491221e-16
   8      -2.9635307641073
   9       4.4359325836806
  10    -0.040784699253015
  11    1.0477110141163e-15
  12    -0.006569449972203
  13     0.039799356338253
  14    -3.4986747190116e-16
  15     -0.03233642016233
  16     -0.22291952327955
  17       5.1740074550981
  18    5.0438915662285e-15
  19         -0.3563417869
  20     -0.12565593401052
  21    5.5778954086782e-15
  22      -0.7971752829442
  23       1.3668326183608
  24     0.029046516234934
  25    6.7711150322079e-15
  26     0.061864972964593
  27     0.017252596367115
  28    3.9397369151651e-15
  29     0.012919378938338
  30     -0.30006331776907
  31       1.2677817296197
  32    9.5547865565418e-16
  33     -0.18968738414333
  34      0.63514950027613
  35    -7.2162961412128e-15
  36      0.88371358416697
  37      -4.1216497767536
  38     0.076674108857962
  39    -5.0444054981791e-15
  40    -0.045563812348729
  41    0.00028572310898314
  42    -5.8146011215013e-15
  43    -0.0051197058694567
  44     0.039967933411173
  45     -0.51374077494234
  46    -8.4766425466479e-15
  47     0.026483287751973
  48     -0.10169362438023
  49    2.8842644996707e-15
  50      0.29700534030452
  51       1.8687365893763
  52     -0.00483828360266
  53    -1.9302582249192e-15
  54      0.13114528927641
  55      0.01413475246425
  56    9.8752792171393e-16
  57    -0.011563926115742
  58      -0.5666065491786
  59     -0.18677088638414
  60    6.0519800507397e-15
  61     -0.30331566930125
  62      0.12997084039441
  63    2.9897213497163e-15
  64       1.0508673973197
  65     -0.41672907866579
  66    -0.078568194336119
  67    -5.693970591765e-15
  68     0.048199400482855
  69     0.015547001751682
  70    -9.9781176171945e-15
  71     0.028634638395282
  72      0.10307930870785
  73      -3.1398272229891
  74    -4.7824816592635e-15
  75     0.003762454902177
  76     -0.25711844163147
  77    -2.360918793035e-15
  78      -1.6445926906296
  79     -0.53279098204715
  80     0.038369884981088
  81    1.4960550461798e-14
  82    -0.070216637353447
  83     0.028510383415405
  84    2.0394918105587e-15
  85    -0.0083144525870458
  86      0.34181834533085
  87        1.763000876886
  88    -5.3953146986311e-15
  89      0.13329329623823
  90     -0.14579733573152
  91    6.5666075280798e-15
  92      -0.1665613958586
  93      -0.1995537655793
  94    -0.016757378549019
  95    -1.7156226369553e-14
  96     0.080166649837623
  97     0.024220875678029
  98    3.5727877131573e-15
  99     0.010342964804057
 100      0.21766520479755
 101      -1.8168321632423
 102    -1.2015849632475e-16
 103    -0.069449760014273
 104     -0.01850916918055
 105    -1.8459674757542e-15
 106     -0.49237064231551
 107       1.5987814228084
 108      0.01773319898668
 109    5.5082143310953e-15
 110     0.058332201867857
 111    0.0097531837759924
 112    1.8367307304967e-14
 113    -0.0023010979612325
 114     -0.28058737585753
 115     -0.85716465342595
 116    -3.9813184815426e-15
 117    -0.039195780165791
 118      0.21981895266519
 119    2.7440779745783e-15
 120      -0.1091719905663
 121     -0.69236131048968
 122     0.044290267237617
 123    7.9089862553684e-15
 124    -0.00010829960986726
 125    -0.0025500849373068
 126    -1.2780028218188e-14
 127    0.0014409458436488
 128    -0.099735885330967
 129      -3.0334764285246
 130    -1.5763839125119e-15
 131     -0.10118411500618
 132     0.076046356961041
 133    -2.5294688745513e-15
 134      0.53043547021695
 135       3.9125588815772
 136    -0.026676628304066
 137    4.1745172561126e-16
 138    -0.049728757030553
 139    0.0093475544050417
 140    -9.5391780490631e-15
 141    -0.056569134649941
 142     -0.27002127949541
 143     0.041393579020564
 144      -4.3986625262526
 145      0.44516830342897
 146      0.73517667232775
 147      0.18727435904702
 148       0.3759118920463
 149     -0.32114231744966
 150     -0.17618926419227
 151     -0.26675652804431
 152     -0.38943203631033
 153      0.27975163507736
 154      0.31226183282655
 155     -0.25799386154013
 156       1.5991933435174
 Sym= A
 Ene=     1.578031742
 Spin= Alpha
 Occup=    0.00000
   1    -0.022674584232908
   2      -0.2146088062624
   3       5.4961635107771
   4    3.3924250114696e-15
   5     -0.38964440057433
   6     0.029601026113064
   7    1.9762208560136e-15
   8       4.3532351481734
   9       3.1622322830669
  10      0.11662512211498
  11    -7.78028401714e-15
  12     0.011301159068479
  13     0.048609677348694
  14    -9.5578397737688e-15
  15     0.019870499366987
  16      0.43470784447666
  17      -2.0241058716776
  18    -6.1228033302274e-15
  19    -0.058397636119402
  20       0.2307771798148
  21    -3.4659918124534e-15
  22     -0.77862764220657
  23      -2.1328159062304
  24    -0.070671447658427
  25    -1.6068422373928e-14
  26    -0.036366273021166
  27    -0.033282534773176
  28    -1.6901482719542e-14
  29    -0.026162769096691
  30     -0.37783390872361
  31      0.13135601321271
  32    3.3496144342826e-15
  33      0.12346824667036
  34     -0.37729354819519
  35    -1.6860327940117e-15
  36      -1.4395546849354
  37       1.3437767360956
  38     -0.10240033446155
  39    1.5599143870969e-14
  40     0.048540153961113
  41     0.065124600631098
  42    1.929956399826e-14
  43    0.0087018018555004
  44      0.32169803643059
  45      -1.5547338412916
  46    3.5836042868037e-15
  47    -0.0010510540488905
  48      0.09251747963512
  49    1.7248572333216e-16
  50     -0.69676521188281
  51     -0.67167155635275
  52    -0.019651126781402
  53    1.286747123036e-14
  54    -0.046695152716026
  55     0.042778251115889
  56    -2.1619813244138e-14
  57    -0.007964751019284
  58    -0.009894298907876
  59       2.0678318507706
  60    -2.6944874510663e-15
  61     0.014877194454413
  62     0.022775387896573
  63    -7.7527297428568e-15
  64      0.32586735308692
  65      0.74547311068907
  66    0.0070891857480718
  67    -1.735860240639e-14
  68    0.0059508095262214
  69     0.026699943902892
  70    1.2265811469427e-14
  71    -0.024648351880587
  72      -0.7894865866277
  73       4.5292917040945
  74    -1.4373253389013e-15
  75     0.029784040468019
  76     -0.36745363150522
  77    1.0896442303165e-14
  78       3.3318003610685
  79       2.5047243986136
  80     0.047868900476851
  81    -2.972110814783e-15
  82    -0.0045526120093018
  83     0.029120724096562
  84    1.007996584931e-14
  85     0.020931493844465
  86        1.074848856739
  87      -5.3359453096705
  88    7.1509052023314e-15
  89      0.15272138626433
  90      0.02144419751749
  91    -8.4201569522508e-15
  92      -3.3759465386766
  93      0.16361500035597
  94    -0.050018506960039
  95    6.8820264874294e-15
  96      0.05429009992691
  97     0.050057194708869
  98    -1.508798433758e-14
  99    -0.0069206986581791
 100     0.041744668462465
 101      -1.6659424599537
 102    5.4845327015285e-16
 103     -0.26793090226479
 104    -0.047637000413348
 105    2.9170210310942e-15
 106      -0.8968869811815
 107        2.387461014911
 108    -0.0067353641693089
 109    2.0947454985409e-16
 110     0.093752518465596
 111     0.032258180529061
 112    -6.2521777352683e-15
 113    -0.0074233606987873
 114    0.0050131087470234
 115      -2.5466918990722
 116    -6.3669021607159e-15
 117     0.085504100870585
 118      0.13777988133114
 119    3.3108672181663e-15
 120      0.91658631864402
 121     -0.14933088809779
 122     -0.07807731466249
 123    -1.9594383246908e-14
 124      0.11685607929967
 125     0.068820191360484
 126    -9.1400809318888e-17
 127    0.00080191450183115
 128    -0.0022331134688192
 129      0.68246265986442
 130    3.708062580122e-15
 131    -0.061822125709702
 132     -0.07151572914576
 133    -5.1770431647807e-15
 134      -3.0522103642054
 135       7.4126807948497
 136    -0.075732930030781
 137    1.000866001836e-14
 138    -0.012569540513343
 139    -0.027964028473054
 140    2.0152254985861e-14
 141      0.37362624917006
 142      0.44068347493093
 143    -0.066523859352232
 144       1.5317525787257
 145      0.02025576648835
 146     -0.19328452113719
 147    -0.071909626313395
 148     0.044059323294588
 149      -0.5255657112147
 150     -0.46548502565583
 151     -0.44874847634596
 152     -0.78294519182784
 153      0.17310906977035
 154      0.13228092217298
 155      0.30185971069566
 156     -0.62534920067218
 Sym= A
 Ene=     1.599110474
 Spin= Alpha
 Occup=    0.00000
   1     0.013096006607307
   2     -0.35167537407966
   3     -0.29153973711966
   4    -4.5564818498197e-15
   5      0.14025408301913
   6      -0.2235177296342
   7    7.2547669603304e-15
   8       0.7504061956084
   9       1.9109015350471
  10     0.029777125617376
  11    6.9196873433975e-15
  12       0.0683117301383
  13     0.033453992613917
  14    9.6194052144244e-15
  15    -0.020378597662141
  16     -0.71363693287364
  17       2.8179995816071
  18    6.2867999078856e-15
  19      0.32510122315369
  20     -0.18576358569143
  21    -1.5158063602304e-15
  22      -3.0547979212915
  23      0.16381979253776
  24    -0.092917504830302
  25    1.1721782042631e-14
  26    -0.0023513933015931
  27    -0.045907120865967
  28    9.8615530439444e-15
  29     0.032485995401168
  30      0.32768280226278
  31      -2.6614049553179
  32    -3.2613984129974e-15
  33     -0.18000959246688
  34      0.11689791632358
  35    1.7000984168193e-15
  36       1.4688653602886
  37      -1.7445359165366
  38     0.029035292047845
  39    -9.7584693026833e-15
  40     -0.12417907441394
  41    -0.015000856198505
  42    -1.1802709798948e-14
  43    -0.019094109800903
  44     -0.18083117579305
  45       2.2858394331761
  46    -2.1924955550316e-15
  47      0.14129561114039
  48    -0.076562987425288
  49    -7.766810326118e-16
  50      0.41857040221521
  51      0.63132615850636
  52    -0.057808098439773
  53    -1.6413776506123e-14
  54     0.035365597829834
  55    0.0086615260736432
  56    1.5767922820947e-14
  57    -0.043514911383147
  58     0.038530775430851
  59       3.9066183496115
  60    4.5881381666605e-15
  61      0.26764643681443
  62      0.29618385660939
  63    8.2567503886049e-15
  64      0.27637665812372
  65       2.2621109007779
  66     0.026912582729257
  67    1.5443528295621e-14
  68     0.077648601459914
  69     0.080226279394636
  70    -1.5351059209293e-14
  71    -0.015978940030619
  72      0.62832388930834
  73      -2.1081217116889
  74    9.6449152739415e-17
  75     0.035463483773851
  76     -0.18139021521387
  77    -1.6058130768089e-14
  78       3.7345502492893
  79       4.3710375432017
  80    -0.037963800428023
  81    7.4773513337987e-15
  82     0.019152093384255
  83     0.049219382415002
  84    -1.1660476374908e-14
  85     0.021460910328224
  86     -0.30722296961558
  87      -3.2560990734589
  88    -5.8166518381841e-15
  89    0.0022154258922908
  90      0.50743620611313
  91    1.1139732493742e-14
  92      -2.6070512029107
  93      -2.0540251061866
  94     0.015622876752074
  95    -1.3036821045878e-14
  96    0.0031229676736385
  97     0.030679461738512
  98    1.0237080013831e-14
  99    -0.027056014932769
 100     -0.34276382423202
 101       3.7029899436095
 102    -2.7752633860775e-16
 103    -0.093743579882945
 104     -0.10262304330297
 105    -3.309952087704e-15
 106    -0.095673852570563
 107      -1.3064034673068
 108     0.022664817619592
 109    2.213504304275e-15
 110     0.047322051625908
 111    -0.0057685443139584
 112    1.4936030759812e-14
 113    0.0052696321856902
 114      0.24225735082079
 115      -2.8611755544432
 116    3.1757528911854e-15
 117     0.019949163127303
 118    -0.075182735572795
 119    -1.2511099138942e-15
 120       0.9765887742681
 121       1.1364986123787
 122    -0.015591404443099
 123    2.2142048552451e-14
 124    -0.019619248354716
 125     0.046793506031867
 126    -7.6903266536889e-15
 127    0.0041158211770236
 128      0.62247748558785
 129      -1.0578226972625
 130    -2.3560596791308e-15
 131     -0.28511973113529
 132     -0.32679544628063
 133    -1.0994888105368e-15
 134       1.1572790137672
 135        2.928829030989
 136    -0.081886585557945
 137    -7.7040831270388e-15
 138    -0.011680454309165
 139    -0.038647239222456
 140    -1.7282360024044e-14
 141      0.42285102652201
 142      0.81709436962045
 143     0.092364628697764
 144     -0.94754747392209
 145    -0.051451177180713
 146      0.15997875121817
 147     -0.15178614657392
 148     -0.13214003662226
 149     -0.34492843058691
 150     -0.38921323123963
 151    -0.046154165394982
 152      0.10528656856438
 153     0.011992489601622
 154     -0.25467494929264
 155     -0.40845150193682
 156      0.43966499866375
 Sym= A
 Ene=     1.602929353
 Spin= Alpha
 Occup=    0.00000
   1    1.3737525047703e-15
   2    2.8399990137684e-15
   3    -8.0321047110152e-13
   4    -0.043469282287219
   5    -2.2482096697166e-14
   6    8.112818962479e-15
   7     0.018605738576543
   8    6.3060601792674e-13
   9    -1.0631042214938e-12
  10    2.0125225773251e-15
  11     0.092598112715007
  12    -7.0306405593951e-15
  13    -2.1549088473195e-15
  14      0.19776089678956
  15    6.8270075818895e-15
  16    1.0103945232064e-13
  17    -1.018612898595e-12
  18     0.033906600039299
  19    -9.6097244355791e-15
  20    -6.2206521404753e-15
  21     0.046289469124024
  22    4.3641251391869e-13
  23    -2.877797041042e-13
  24    7.3166016708556e-15
  25      0.21645715544273
  26    -1.6326267805596e-15
  27    2.8729524157605e-16
  28      0.15810275393094
  29    -5.4621663377075e-15
  30    -5.399381453428e-14
  31    2.2671412122437e-13
  32    -0.0075451955631968
  33    4.9414371196978e-14
  34    -6.2638609962063e-14
  35    -0.0033386615678716
  36    -2.6146294081771e-13
  37    4.1746619949505e-13
  38    -2.4572333857805e-15
  39     -0.19083733641993
  40    1.2846359754769e-14
  41    3.0073828407631e-15
  42     -0.21884211349214
  43    1.8225903319104e-15
  44    5.4348990989889e-15
  45    -1.7913427687643e-13
  46     0.019996868187882
  47    -2.3310522371447e-14
  48    7.7809261499103e-15
  49    -0.024422750157875
  50    -1.6634011091715e-14
  51    -5.0446415779066e-14
  52    1.0648085049395e-14
  53     -0.25498155615046
  54    -8.6722788346554e-15
  55    3.9857578055834e-15
  56      0.24468211509452
  57    4.8470839814997e-15
  58    5.5854718531454e-14
  59    -1.8661499422361e-13
  60     0.031774572872506
  61    5.4613129305906e-15
  62    -1.7066211337375e-14
  63      0.11205773462384
  64    -2.0138492343649e-13
  65    -9.4511732475404e-14
  66    8.1573975229684e-15
  67      0.27773824046685
  68    -6.0460989041922e-15
  69    -7.7257974318295e-15
  70     -0.19177241027247
  71    -2.0339831984611e-15
  72    -1.2015308991272e-13
  73    1.0407790768816e-12
  74     0.011467640112003
  75    6.5383875111059e-15
  76    -2.5878473615752e-14
  77     -0.16701599093847
  78    1.4403507074166e-13
  79    8.7283687621544e-14
  80    7.6334302498515e-15
  81     0.054444008054297
  82    6.4659576103814e-15
  83    -6.535874234809e-15
  84     -0.22196401442684
  85    1.6635481539722e-15
  86    1.0030764416547e-13
  87    -7.418318953405e-13
  88    -0.085668880719979
  89    -7.1873468404659e-15
  90    -2.3853477827277e-14
  91       0.1102345006611
  92    -2.5463743221441e-13
  93    3.2638006329369e-13
  94    -2.3691269350722e-15
  95       -0.118597552703
  96    5.1873969226982e-16
  97    2.7573147163351e-15
  98      0.18447335643338
  99    1.8783150939477e-15
 100    5.3440100171295e-14
 101    -2.412924289316e-13
 102    -0.022584357236494
 103    -1.562919785557e-14
 104    -2.6836214182372e-14
 105    -0.031906496009084
 106    2.7050163421757e-15
 107    2.0169154767555e-13
 108    -4.323011836194e-15
 109    -0.011932989257225
 110    1.2593946998162e-15
 111    2.3359135118866e-15
 112      0.14973047566078
 113    -2.5555641700661e-15
 114    -6.589083037221e-14
 115    8.9504108493853e-13
 116     0.070499766382497
 117    -5.2965334641989e-16
 118    2.7613229327493e-15
 119    -0.044989086406304
 120    -2.8299702940473e-13
 121    -5.5624174251589e-13
 122    -1.0477410286979e-15
 123      0.31513856851129
 124    1.9057524668548e-14
 125    -8.1718355683335e-17
 126     -0.04999512306054
 127    -2.0063586575745e-15
 128    -3.3036690870473e-14
 129    8.5615269525204e-13
 130    -0.039471525260046
 131    4.0073628519003e-14
 132    8.7883770817361e-16
 133     0.053327887769828
 134    -8.5950401440423e-13
 135    -1.0582029839582e-12
 136    3.4555958626139e-15
 137     -0.13092315905325
 138    1.4841682072678e-15
 139    2.2751126684771e-15
 140     -0.28300521782615
 141    -2.5665964668173e-14
 142    -7.3599981776298e-14
 143    -2.1822876021864e-16
 144    3.3535428498489e-13
 145    1.3776308198947e-14
 146    -1.21304001178e-14
 147    -3.6430499558899e-14
 148    -5.3116645665479e-14
 149    -1.7664919073758e-14
 150    -4.8820822818234e-14
 151    -1.7999057951531e-14
 152    -5.5183854420659e-14
 153    5.1576595465828e-14
 154    1.4371688396476e-13
 155    3.5133463435317e-14
 156    -1.1644611684706e-13
 Sym= A
 Ene=     1.623826102
 Spin= Alpha
 Occup=    0.00000
   1    -0.039758042585885
   2      0.11894501393708
   3       16.179892211595
   4    -3.4618590961325e-15
   5    -0.060153285589932
   6    0.0043289594651334
   7    5.1651534232858e-15
   8       -5.548037979459
   9       16.391952830915
  10     0.038679432858064
  11    5.7918874047213e-15
  12    0.0098859519041199
  13    -0.003501598738007
  14    1.775524514862e-14
  15    -0.051099323817485
  16     -0.44178827747253
  17       9.2283439822266
  18    1.3495857500521e-15
  19     -0.11858744304221
  20      0.42328964202223
  21    -5.0244385310774e-17
  22      -4.0414237536711
  23       2.3522441321033
  24     -0.04968994569917
  25    1.6226075908693e-14
  26    -0.030747834439016
  27     0.033906800292455
  28    9.931988733625e-15
  29    0.0017905444663625
  30      0.29363996441244
  31      -1.2314522973689
  32    -1.8846147872261e-15
  33     -0.24873682391604
  34    0.0013014468255525
  35    1.2403473657061e-15
  36      0.96073190283479
  37      -1.2502798568453
  38     -0.10507396859428
  39    -1.8167153752367e-14
  40    -0.0045545904318259
  41      0.01436046675015
  42    -6.1606620979515e-15
  43    0.0055682895262553
  44      0.31712257051235
  45       -0.610974988279
  46    5.0729992947944e-15
  47      0.17473038060106
  48     0.059099519224114
  49    -1.5898126564232e-15
  50     -0.57153753975016
  51      -1.1565977879481
  52    -0.089486102286461
  53    -2.7196411879209e-14
  54    -0.0074761853881546
  55    -0.010303505476208
  56    9.363819368554e-15
  57     -0.02571958734743
  58     -0.60506921568397
  59      0.64666862865731
  60    2.3258446450087e-15
  61     -0.18984904417396
  62    -0.027599294594366
  63    8.2791065284896e-15
  64       2.2312921952747
  65     -0.28076496296202
  66    -0.077734550729463
  67    2.1762660822814e-14
  68    -0.016759191512928
  69      0.03272605464576
  70    -1.8510948356143e-14
  71      0.01046109508698
  72      0.19802197565205
  73      -7.4445265903928
  74    -4.6698086317167e-16
  75    -0.072153745659678
  76      0.22139248922613
  77    -1.0755418790336e-14
  78      -2.1740237522121
  79      -3.1960293591345
  80    -0.039892406303382
  81    4.8251853748242e-15
  82    -0.060057122583676
  83     0.035354422653031
  84    -1.8905686228263e-14
  85    -0.017469833491762
  86      -0.1309227165545
  87       8.4836129786639
  88    -4.8047680317771e-15
  89        0.203176265912
  90    -0.099293823461377
  91    5.5714196320117e-15
  92       2.8357924375372
  93      -2.4309536281151
  94    -0.027232303734861
  95    -9.290238466898e-15
  96    0.0033188548345483
  97    -0.043235028421381
  98    1.2471150489161e-14
  99    -0.0099101448739805
 100     -0.37694789135158
 101      -1.5487917156545
 102    -2.3469189556696e-15
 103     0.062745098650007
 104      0.35796733237272
 105    -7.0069073274875e-16
 106     -0.67710927065313
 107      0.68073548021225
 108    -0.00018410650738509
 109    -2.1042413198036e-15
 110    0.0095380393968644
 111    -0.0031812667695911
 112    1.4056653092312e-14
 113     0.030976310090802
 114      0.77119047589904
 115      -12.961008277589
 116    4.3119854899097e-15
 117     0.076810788447739
 118      0.15612863697634
 119    -3.5249997239051e-15
 120       4.1744185280629
 121       6.9921275831956
 122     -0.08865695786739
 123    2.6014638669952e-14
 124     -0.11956864918272
 125     0.015404527579668
 126    -6.5864899350131e-15
 127     0.020608274529999
 128    -0.099317251406866
 129       -9.968337556649
 130    -1.7893672550304e-15
 131     -0.36260459829235
 132       0.1166809938236
 133    1.6737311848172e-15
 134       8.4571586918401
 135       19.478996977538
 136    -0.049721993822419
 137    -9.3086758883752e-15
 138    0.0092143237052961
 139    -0.024501427268718
 140    -2.0596980464579e-14
 141      0.36608061448275
 142      0.78352335409054
 143     -0.15799451905379
 144     -0.65839469783947
 145     -0.25498062338115
 146     -0.40457262350912
 147      0.51023450233009
 148      0.68090286419652
 149     0.084201644471316
 150      0.59731757426143
 151    -0.075480415591218
 152     -0.10325742190898
 153     -0.60036313304846
 154       -1.781835293973
 155     0.057154732780713
 156       0.1271735819458
 Sym= A
 Ene=     1.701755173
 Spin= Alpha
 Occup=    0.00000
   1     0.049774374629539
   2       1.0141374756854
   3      -4.1889903734712
   4    5.2247589552469e-16
   5     -0.19139281273566
   6      0.29928968488892
   7    -2.9423508253283e-15
   8        4.756691825327
   9      -5.3213756752655
  10    -0.080075135194785
  11    7.607987593826e-16
  12      0.11174220233975
  13    -0.087754869713896
  14    -2.8456803164895e-15
  15    0.0028738508965562
  16     -0.33350245881234
  17      -3.3716419257018
  18    3.4752498496609e-15
  19      0.24069945495915
  20     -0.19543959872601
  21    3.8196651953479e-16
  22     -0.38068420995317
  23      -1.3519907478767
  24    -0.088457194016119
  25    -2.7414674848776e-15
  26     0.057312021125466
  27    -0.060792895997932
  28    -2.9980602714202e-15
  29    0.0087150004502619
  30     -0.19119854133772
  31       0.3192216327898
  32    -2.3493878112054e-15
  33     -0.12211352231901
  34    -0.021273972591012
  35    -2.1754748201807e-15
  36     0.027335997569986
  37      0.43021887963726
  38      0.10295871438442
  39    9.0652192083911e-15
  40     -0.11542621035355
  41    -0.045123018839698
  42    -7.0385042347635e-15
  43    0.0027455657124315
  44      0.10021119079872
  45      -0.5468719971428
  46    -4.9070321007325e-15
  47      0.12649014036157
  48    -0.011798425554781
  49    1.6149030184847e-15
  50     -0.53668190474118
  51      -1.0914391167962
  52     0.022279887637014
  53    7.1246957411856e-15
  54    -0.0042305296280583
  55    -0.011260180912353
  56    1.0597608610709e-14
  57    -0.0037341455191902
  58       0.0899752359795
  59       1.8021446341341
  60    6.0740150230275e-16
  61      0.14202369039362
  62     -0.03703599371361
  63    1.0725106905649e-15
  64       1.0620811019738
  65      0.21575288987318
  66    0.0041502037644489
  67    6.4193020868609e-16
  68    -0.038484930439945
  69     -0.01968739700378
  70    3.2884568789027e-15
  71    -0.034400082732378
  72     -0.63943892502536
  73       8.6352973584263
  74    2.6515175828014e-16
  75       0.1235097718683
  76      -0.1117819874542
  77    -2.5804426911095e-15
  78       1.2102145335699
  79       4.9911595705497
  80    -0.029926045177943
  81    -1.0296623098728e-15
  82    -0.042356665721905
  83    -0.067631306027584
  84    2.4816603987029e-15
  85    -0.0092147933737421
  86     0.059378242185892
  87      -4.5783211271215
  88    2.4688526877356e-16
  89     -0.13360099867484
  90     0.012952317773639
  91    2.2472009169465e-15
  92        2.520497992674
  93       4.4627228184275
  94    -0.083876468521389
  95    -8.6263542062046e-17
  96     0.085016774571824
  97     -0.01709211995296
  98    -2.364924314155e-15
  99     0.060276402506548
 100      0.70930005494926
 101      -8.5066569183387
 102    3.8855939663928e-16
 103    -0.015936178261911
 104       0.1888429806411
 105    -2.1729763106989e-15
 106      -2.0085235787518
 107       5.3314072611912
 108    -0.060653422822034
 109    1.054495322324e-17
 110      0.11323950659007
 111    -0.014761172543463
 112    2.2652969974847e-15
 113    0.0020503082408847
 114    -0.051657373849794
 115      0.27458190373977
 116    -6.6126667567939e-16
 117     -0.10675778737879
 118       0.2181514972407
 119    5.6677977845268e-18
 120    -0.067415976787275
 121     -0.10599549048516
 122    -0.043261994715582
 123    3.9879161511758e-16
 124    -0.041149224874374
 125    -0.042600603933199
 126    -2.3795064928454e-15
 127    -0.051610190606437
 128     -0.73382285374956
 129       10.598113393619
 130    -1.3157549233855e-15
 131       0.1853533473969
 132    -0.077527814013987
 133    3.2894430945834e-15
 134      -3.1210195930779
 135       2.3696011358562
 136      0.14115521570512
 137    -7.8878263533513e-16
 138     -0.06402439158828
 139     0.057036094175358
 140    7.2369842841701e-16
 141      0.22063834754113
 142      0.30353540240273
 143      0.27285152882548
 144     -0.19387674330148
 145     -0.28933508278806
 146     -0.39893479436261
 147      0.20340490245583
 148      0.20837107562543
 149      0.56036322285486
 150      0.75374053123839
 151     -0.51150571522419
 152      -1.4439388125234
 153     0.071326198234703
 154    -0.043623139145631
 155     -0.32942936052678
 156      0.30917859934724
 Sym= A
 Ene=     1.721533221
 Spin= Alpha
 Occup=    0.00000
   1    -0.047506899140646
   2     -0.53398311182489
   3       8.7851420691615
   4    -2.353303188363e-15
   5     -0.15969341885431
   6     -0.14695679094871
   7    2.0285812359898e-14
   8      -1.1398672286843
   9       4.3136426925157
  10     0.064387302010756
  11    3.2872255246949e-15
  12     -0.10527929969317
  13     0.027859733178874
  14    -3.4424269701872e-15
  15    0.0027761700661407
  16    -0.088602977064056
  17       1.4096660159379
  18    -1.3897846089239e-15
  19     0.047369901509166
  20     -0.13617426107328
  21    -8.15258861444e-15
  22      -1.3791451693882
  23     0.015475618446012
  24    -0.042617882093075
  25    -1.85767596999e-14
  26    -0.019544731449013
  27     -0.01444019205284
  28    -6.4303808521911e-15
  29     0.014554901962053
  30      0.13222793448669
  31      -1.9943066772336
  32    2.0059113952585e-16
  33    -0.090549084373017
  34    -0.0058631129732618
  35    2.5335422748515e-15
  36      0.81318553912242
  37     -0.45549517816784
  38     0.026012273539462
  39    4.0116076268256e-15
  40     -0.05572081939664
  41     0.022682126459302
  42    2.6792119648282e-14
  43    -0.017252246313026
  44     -0.51141154376535
  45      0.26290999458016
  46    8.8285837363147e-15
  47     0.036294275304206
  48     -0.22906496492174
  49    -2.7096916662875e-16
  50       1.3780167850055
  51      0.45383283936003
  52    -0.034712662266561
  53    -3.1428961122994e-14
  54     0.048931138721277
  55       0.0480904493445
  56    -2.5842692086791e-14
  57     0.032342764581206
  58      0.26209149092182
  59      -1.4545543674415
  60    1.666119492448e-15
  61    0.0058318786741151
  62    -0.015535612493929
  63    -2.9743466566042e-16
  64       1.3561951936934
  65      -2.4992638238659
  66    -0.035578089597703
  67    1.3613994166843e-14
  68     0.047747573594734
  69    -0.052100849033798
  70    -1.6351006457023e-14
  71    -0.054191230769712
  72     -0.82519016854581
  73       10.222464563505
  74    3.2951548062207e-16
  75      0.32363035781779
  76     -0.19222638593784
  77    -6.6659899482729e-15
  78      -4.2154255547667
  79       4.8988116501226
  80      0.11168522341023
  81    -7.7666438562952e-15
  82      0.16224094719405
  83     0.033433015787394
  84    -4.3110936432531e-15
  85         0.02222740395
  86      0.49654694751863
  87      -4.0943723795642
  88    4.8949568249852e-15
  89     -0.19928423154859
  90     -0.39703253482629
  91    8.387424398535e-16
  92       4.4856873334941
  93       8.6902161067632
  94     -0.14179585601696
  95    6.3934276114085e-15
  96     -0.18837115395209
  97     -0.11456179467057
  98    -6.7665961155021e-15
  99    -0.020330282757756
 100    -0.071927976746119
 101      -4.9479746774566
 102    -2.1630272182902e-15
 103     0.044508231287079
 104     0.023824306530784
 105    2.5778449480008e-16
 106       2.7220601203342
 107      0.87100468456721
 108    -0.049989732167004
 109    -2.8652525328078e-15
 110     -0.14159749809921
 111     0.062262721172631
 112    7.8718723650862e-15
 113    -0.0003174502188849
 114      -0.1013254724772
 115      -3.3108793290876
 116    -1.8950043085154e-15
 117      0.11460750664029
 118      0.10848552175088
 119    3.4553632974745e-15
 120      0.98291474984714
 121      0.81022514377915
 122    -0.019787084811923
 123    7.7041712920179e-15
 124     0.047350931570257
 125      0.05282439353166
 126    -9.9372655786261e-15
 127     0.050207353775134
 128      0.57740562578915
 129      -7.5341524444538
 130    5.6662017015189e-17
 131      0.17485721725068
 132     -0.32210980840288
 133    -1.1163360528817e-14
 134       2.2286371896752
 135       5.8083254323193
 136     -0.07460208659642
 137    1.6200417100108e-15
 138     0.097703123268647
 139    -0.089876504659884
 140    5.736302177601e-17
 141      0.25462938366718
 142       0.3697351123142
 143      0.11889011518875
 144    -0.027648741121618
 145      0.20415291137068
 146      0.33107923670285
 147      0.51831765444572
 148      0.52508294865468
 149      0.22498583400867
 150      0.86926995518621
 151      0.50322318285808
 152      0.45593938295357
 153    -0.062503014056278
 154     -0.20034448440078
 155     -0.22614346877798
 156     0.071828023027213
 Sym= A
 Ene=     1.742727524
 Spin= Alpha
 Occup=    0.00000
   1    -4.8046247429064e-15
   2    -2.3281507613642e-14
   3    1.0958588573142e-12
   4     0.035264820510198
   5    1.6686055116372e-15
   6    -2.8707684407576e-14
   7      -0.1591020226767
   8    -4.1284544777415e-13
   9    1.1531488486315e-12
  10    9.9024195254222e-15
  11     0.062311909684153
  12    -8.6249032822633e-15
  13    5.6538657585114e-15
  14     0.082733202279681
  15    -2.3616823732971e-15
  16    -7.5069290875315e-15
  17    5.5157022231316e-13
  18    0.0093715213230983
  19    -9.3870958528791e-15
  20    1.5233541500005e-14
  21     0.040556844145578
  22    -1.6100179418462e-13
  23    2.0401265345755e-13
  24     -2.3330912388e-15
  25     0.024465079596838
  26    -9.0115634768626e-15
  27    -1.1548131438011e-15
  28    -0.087984412978938
  29    1.1243494318358e-15
  30    2.0554873916852e-16
  31    -1.4362253966852e-13
  32    -0.093277836996847
  33    -2.4113776126098e-15
  34    -1.149657756115e-14
  35    -0.00069369052426343
  36    7.2007181418636e-14
  37    5.1372484948523e-14
  38    3.6531934395646e-15
  39      0.26218339419778
  40    -1.1266867819576e-14
  41    -4.9831005567224e-15
  42     -0.33268583791892
  43    -1.1143322393956e-15
  44    -2.7527879316415e-14
  45    1.0849390664742e-13
  46     -0.14165402307434
  47    2.0616590447098e-15
  48    -2.5031145872289e-15
  49     0.018459366046537
  50    9.806026612327e-14
  51    4.8247470774417e-15
  52    -2.0358630552524e-15
  53      0.52453566204031
  54    3.1196858296501e-15
  55    4.1866803108565e-15
  56      0.37735805929869
  57    2.0146918302724e-15
  58    2.1798531074128e-14
  59    -3.0502281252091e-13
  60    -0.091642091963852
  61    -1.2521968694134e-15
  62    -1.990204959878e-14
  63     0.087486138092632
  64    -5.9719929690971e-14
  65    -1.5497946077014e-13
  66    -7.6764204072874e-16
  67    -0.066259612588901
  68    4.4367950774054e-15
  69    4.1443694892741e-17
  70      0.41497337048798
  71    -1.7695330111029e-15
  72    -4.2848804099842e-14
  73    -7.4187202929147e-14
  74      0.05495081560344
  75    8.2518787852464e-16
  76    1.4218978756815e-15
  77     -0.16334167261023
  78    -2.6515945057988e-13
  79    -3.4657521399185e-13
  80    5.0963547359103e-15
  81    -0.064347550941705
  82    1.1961050559847e-14
  83    8.2057579484564e-15
  84    -0.042928759707432
  85    4.6510946101629e-16
  86    3.9030383077731e-14
  87    4.4725743443424e-13
  88    -0.011332423906047
  89    7.0881376091293e-15
  90    -2.6693390313808e-14
  91      0.12858395178909
  92    1.5277965395435e-13
  93    2.3110762401234e-14
  94    -1.8335177103618e-15
  95    -0.023078738353338
  96    -1.4773404936171e-14
  97    -4.4723978093336e-15
  98    -0.010069554685599
  99    -2.7430674910143e-15
 100    -2.2228493962469e-14
 101    -5.3490350787387e-14
 102     0.010904096054699
 103    4.3772405898615e-16
 104    5.7029223029174e-16
 105     -0.10176966256131
 106    1.0469681679424e-13
 107    -3.1334868613775e-14
 108    -3.8515727681779e-15
 109     0.024627309686265
 110    -9.2421146491601e-15
 111    2.6306229598911e-15
 112     0.093727169543825
 113    9.9026100357055e-16
 114    1.5018219803528e-14
 115    -6.1702507669451e-13
 116      0.01385088699535
 117    1.3257163502859e-14
 118    8.5060649019619e-15
 119    -0.038996241833939
 120    1.8793619544224e-13
 121    2.6888847777206e-13
 122    -7.5858208367535e-15
 123      0.14279447080299
 124    5.4830355592011e-15
 125    5.2271365666128e-15
 126    -0.067535310731312
 127    4.1665240919659e-15
 128    3.4436010034094e-14
 129    -1.0647286763336e-12
 130    -0.050872768946519
 131    -9.8469871369899e-15
 132    -5.0933133664606e-15
 133       0.1800983711935
 134    4.4905028596938e-13
 135    1.017377139247e-12
 136    -8.5627869429042e-15
 137    -0.088691883781903
 138    5.5985196135132e-15
 139    -4.519068124181e-15
 140    -0.049704581268985
 141    -4.062627883015e-15
 142    1.6507758566968e-14
 143    2.8768751618722e-14
 144    4.2552257003437e-14
 145    6.6327780652691e-15
 146    4.8960316308574e-15
 147    1.4566993293581e-14
 148    -1.5574028739153e-15
 149    -1.1626602164965e-14
 150    2.0685263690667e-14
 151    2.2486547576409e-14
 152    3.4691607311776e-14
 153    -2.0125558216951e-14
 154    -6.514795661752e-14
 155    -3.815309239218e-14
 156    1.5553592920396e-14
 Sym= A
 Ene=     1.747191613
 Spin= Alpha
 Occup=    0.00000
   1    2.634344624511e-15
   2    1.0594676946427e-14
   3    -7.3824169997838e-13
   4    -0.0087124623025958
   5    4.771811489327e-15
   6    1.9243976369086e-14
   7      0.29430159591104
   8    2.111117069452e-13
   9    -7.6467618640894e-13
  10    -7.7022110920181e-15
  11      0.15156990477748
  12    5.5563947292804e-15
  13    -3.6106793061718e-15
  14      0.17131035685738
  15    1.3872356747291e-15
  16    7.9370671739703e-15
  17    -3.3702395940113e-13
  18    -0.0079482979931294
  19    3.8456287695176e-15
  20    -9.1696665029801e-15
  21     -0.17574729778482
  22    1.2775140921869e-13
  23    -1.1281580604021e-13
  24    2.8725541110433e-15
  25     -0.23126532237834
  26    7.4881306277045e-15
  27    1.8534285807722e-15
  28    -0.040463189571452
  29    5.7842275721502e-17
  30    -7.1563987106332e-15
  31    1.2883445963713e-13
  32     0.013030293427438
  33    -4.029905089626e-15
  34    1.7727217932888e-14
  35     0.046785537810141
  36    -4.1246253608502e-14
  37    -6.4521214113485e-14
  38    -1.1052594064677e-15
  39      0.10695894231091
  40    9.6896425759324e-15
  41    1.4020081079069e-15
  42      0.34713044371518
  43    8.0772603868628e-16
  44    2.151557996694e-14
  45    -7.2214947173192e-14
  46     0.069079101025184
  47    -1.4815291096231e-15
  48    4.6358501897517e-15
  49     0.014805427271995
  50    -6.9642695560637e-14
  51    1.8056478757237e-14
  52    1.5084764087848e-15
  53    -0.034890378563463
  54    -1.4142447344995e-15
  55    -4.2087002229419e-15
  56     -0.30177774950181
  57    -1.9654516419714e-15
  58    -2.2221091009477e-14
  59    2.0750124609596e-13
  60     -0.11228511015703
  61    -3.4534654262253e-16
  62    1.5374606386038e-14
  63     0.038203532570274
  64    2.7273515250388e-14
  65    1.2076312429317e-13
  66    -5.547071364367e-16
  67      0.13704765601658
  68    -3.1119945613808e-15
  69    1.2047695864094e-15
  70      0.22182512481574
  71    2.3254998069826e-15
  72    4.875370459042e-14
  73    -1.5215079400905e-13
  74     0.087349481068853
  75    -5.6987823335415e-15
  76    1.6912177926497e-15
  77     -0.22211822126578
  78    1.7923800587813e-13
  79    1.5438397608013e-13
  80    -4.1451683371994e-15
  81     -0.26774202351161
  82    -1.066897039122e-14
  83    -6.1837105160483e-15
  84     -0.24559119132524
  85    -6.0254272004569e-16
  86    -3.7313348760461e-14
  87    -1.9180943599398e-13
  88     0.084816457918315
  89    -2.2360105856248e-15
  90    2.030879440193e-14
  91      0.10469660371106
  92    -1.375601555454e-13
  93    -1.1835818004447e-13
  94    2.7609371214975e-15
  95      0.15604915231487
  96    1.2041951319616e-14
  97    3.7034352776873e-15
  98    -0.083703313783434
  99    1.7062863436382e-15
 100    1.1601788203605e-14
 101    1.267197341527e-13
 102    -0.071082542201589
 103    7.9211361571512e-16
 104    -9.2251960981192e-16
 105    -0.055704449132182
 106    -7.7101038919447e-14
 107    -2.5122387133377e-14
 108    3.9360450541864e-15
 109     -0.10200972297162
 110    7.4460172259661e-15
 111    -1.696839160949e-15
 112      0.25628761824698
 113    -6.3710035288423e-16
 114    -7.7382699164715e-15
 115    4.2127784163864e-13
 116    -0.012644588265467
 117    -1.0984568380609e-14
 118    -8.5252610254911e-15
 119     0.030430301175224
 120    -1.2797623084451e-13
 121    -1.7319367097343e-13
 122    6.8187254096952e-15
 123      0.32262031867815
 124    -5.8952330183895e-15
 125    -3.7534194348698e-15
 126     -0.25848901887204
 127    -2.7844135311365e-15
 128    -2.35015042627e-14
 129    6.8752542466707e-13
 130    -0.059316804655809
 131    2.4597514464762e-15
 132    6.0437431632618e-15
 133    -0.079502162257733
 134    -2.6736364154148e-13
 135    -7.2910720500001e-13
 136    4.9132255786265e-15
 137    -0.064722168859842
 138    -4.3733390956673e-15
 139    3.0786274297729e-15
 140    -0.090734454058994
 141    -4.5286986351035e-15
 142    -2.0090993859851e-14
 143    -2.1628351369755e-14
 144    -5.9063035409118e-14
 145    2.7094574351306e-15
 146    3.0434351207077e-15
 147    -1.5309838300946e-14
 148    -4.1788823635381e-15
 149    3.0145749714158e-15
 150    -2.5175990138296e-14
 151    -1.413499795025e-14
 152    -1.4789410799932e-14
 153    1.3583353896288e-14
 154    4.1119574036511e-14
 155    3.1527278066145e-14
 156    -4.4387699013328e-15
 Sym= A
 Ene=     1.769099095
 Spin= Alpha
 Occup=    0.00000
   1    -0.026330148784701
   2       -0.569617661582
   3       10.209139301899
   4    3.7537479643128e-15
   5     0.028997121503652
   6      0.63091569131552
   7    -2.8331964631389e-14
   8      0.16392045779744
   9      -2.4700176288807
  10    -0.013640339153604
  11    -6.5341026536465e-15
  12    0.0038047645761764
  13    -0.0089827089612775
  14    9.9682055886301e-15
  15     0.039071269974735
  16      0.43039574545755
  17      -3.9541581239899
  18    -4.922859842813e-15
  19    -0.053612770136691
  20      -0.1548596993351
  21    1.3396514353664e-14
  22       1.5039661406141
  23      -1.6282545001815
  24     0.035085517619005
  25    1.7466752664394e-14
  26     0.092547577586201
  27     0.056766656334819
  28    -7.7353281016283e-15
  29    -0.015478140404012
  30      0.11728555300248
  31      0.13807897717008
  32    1.9131772354636e-16
  33      0.14273922839686
  34     0.031985336110123
  35    -1.2146106061553e-15
  36     -0.52986293653877
  37     -0.44201719143537
  38    -0.097111584126758
  39    6.9542264528545e-16
  40      0.20217956659346
  41     0.067352335278515
  42    -1.7488861068132e-14
  43    -0.001532903459113
  44      -0.1995734138991
  45     -0.46937457904857
  46    -3.1171714487172e-15
  47    -0.019938263809428
  48    -0.096537398846988
  49    -5.6211057287496e-16
  50      0.28138308091397
  51       1.3329562669375
  52    -0.0030340511462678
  53    2.2542875544792e-14
  54    -0.033646141763186
  55     0.056298128984537
  56    9.2071057011911e-15
  57    -0.0052525666927874
  58      0.17658657751563
  59       1.8714206603751
  60    -1.5432152429821e-15
  61      0.16837113785444
  62      0.37951855261411
  63    -2.5414778107855e-15
  64      0.36354972145945
  65      0.21693464665628
  66    -0.026925123880014
  67    -1.3580086271061e-14
  68    -0.025497516567138
  69     0.010971543784794
  70    1.2660499315293e-14
  71    -0.022880091558973
  72      0.15644429400965
  73       3.2124814426933
  74    -1.1492289798251e-15
  75     0.037628458797784
  76    -0.0073232228578782
  77    1.1932813792893e-14
  78     -0.31984844919838
  79        6.111362771707
  80     0.028954700483842
  81    1.1753833391817e-14
  82    -0.047724880193201
  83    -0.014383878166768
  84    -3.3979214551032e-15
  85    -0.0054936691301597
  86     -0.42111695951187
  87     -0.99450852006186
  88    -7.0431525127289e-15
  89    -0.033966564205789
  90     0.081052360856377
  91    -4.8284190524569e-15
  92       3.6643861776812
  93       3.9940173042637
  94     -0.12817911129109
  95    -1.0789760757546e-14
  96      0.11399384598491
  97    -0.068514947194416
  98    9.0625688124181e-15
  99     0.021834473226339
 100     0.072297447052996
 101      -6.1810831693785
 102    2.5345973239491e-15
 103     0.059017949678116
 104      0.35750144823263
 105    1.2125363520076e-15
 106     -0.53865051559101
 107       3.0525828491179
 108     0.031407333517103
 109    5.4978858000444e-16
 110     0.092075179386375
 111     0.047889916697414
 112    -6.7018801992126e-15
 113     0.016521969609437
 114      0.26031052720511
 115      -7.3571746865506
 116    3.1928966325325e-15
 117    -0.073936092501391
 118      0.26021329682748
 119    -6.8898383696692e-15
 120       2.3479275962123
 121        3.653216735989
 122     0.028422491760437
 123    1.1397949494588e-17
 124     -0.18852631598297
 125     0.033513023462701
 126    1.1006549970834e-14
 127    -0.00029491286521655
 128      0.17106789417533
 129       3.7859167645497
 130    2.8169974286454e-16
 131     -0.11510276497552
 132     -0.35272143699682
 133    1.7157992374511e-14
 134       3.5823095019133
 135       10.711847871603
 136     0.010451558215848
 137    -2.7330178562756e-15
 138    -0.042273471448832
 139    -0.063975097818733
 140    -4.596996951826e-15
 141     0.093280096064156
 142     -0.17724475394632
 143     -0.41144276548056
 144      0.44109179838153
 145      0.45779367295081
 146      0.51886139569612
 147    -0.062497714929252
 148    -0.050624877464024
 149      0.35170119259856
 150      0.75626922637969
 151     -0.11849703724682
 152     -0.59313639341724
 153     -0.16580613460125
 154      -0.9937479532354
 155      0.45137348536967
 156      -0.5717308501654
 Sym= A
 Ene=     1.784226541
 Spin= Alpha
 Occup=    0.00000
   1    -2.7239586624754e-15
   2    -1.7160180181657e-14
   3    9.922964442792e-13
   4    -0.032347067386662
   5    1.131709870154e-14
   6    2.724864928538e-14
   7      0.19896668668742
   8    -2.6398005913143e-13
   9    5.4683603279935e-13
  10    7.0193864330317e-15
  11     0.076770819860593
  12    1.9023713204976e-15
  13    4.9092510212896e-15
  14     -0.31552918545334
  15    1.8608860243476e-16
  16    3.7759329175774e-14
  17    1.292640824553e-13
  18    -0.014547847494965
  19    -1.7394039103564e-14
  20    1.1639105881841e-14
  21    0.0060081296955234
  22    8.0472273358225e-14
  23    7.0554975382161e-14
  24    1.5118702295051e-15
  25     -0.33310626959675
  26    -7.4144006341464e-16
  27    -3.1741723445682e-16
  28     -0.20725827620613
  29    -5.1721598014812e-16
  30    5.8330818673928e-16
  31    -2.2846140648855e-14
  32     -0.14730741690069
  33    6.4152495846122e-15
  34    7.9700292780558e-16
  35    -0.031709674194538
  36    -4.5222501801431e-15
  37    3.0303689260491e-14
  38    -2.5510405668104e-15
  39      0.35803077596916
  40    2.0084660229558e-15
  41    -2.9040470201666e-15
  42     -0.17633454545078
  43    -2.3687204014708e-16
  44    -2.0303393844699e-14
  45    1.385660695935e-13
  46     0.055735204362489
  47    -1.7232971300993e-14
  48    2.9716515563983e-15
  49    -0.017428743950848
  50    6.646727550529e-14
  51    1.1091609584373e-13
  52    -1.9653064942202e-15
  53     -0.27044781304425
  54    -8.4633578950871e-16
  55    3.3058702085202e-15
  56      0.27502190976821
  57    1.1564981284243e-15
  58    3.5502657088493e-14
  59    -2.5828587856589e-13
  60      0.07608724873872
  61    9.2999739215811e-15
  62    3.9326043258874e-15
  63      0.11966793318363
  64    -2.2587239439538e-13
  65    -1.8639662838824e-15
  66    1.2829154647127e-15
  67       0.2976373526554
  68    4.4535994865013e-17
  69    4.582966838669e-15
  70     -0.25004002568061
  71    4.6113261911354e-16
  72    1.4578160611854e-14
  73    -5.0316271922403e-13
  74    0.0080741021628166
  75    -1.8117792749012e-14
  76    2.1938544924113e-14
  77     -0.35698817631544
  78    -2.1080176385705e-14
  79    -4.411268231798e-13
  80    5.759947917666e-16
  81     -0.11633732854538
  82    -1.3753769966659e-15
  83    7.0361158747866e-15
  84      0.15055602334869
  85    -2.1168982991801e-15
  86    -2.4274784930317e-14
  87    7.5406515428851e-13
  88     0.080239353279911
  89    1.8777661268893e-14
  90    4.8554220610828e-15
  91       0.2125006435135
  92    1.019151504146e-13
  93    -3.4152672570984e-13
  94    1.2794983650159e-15
  95      0.05737400119879
  96    3.7173088315406e-15
  97    5.4321699407048e-16
  98     -0.14306014553167
  99    9.2771125908733e-16
 100    -3.326479405239e-15
 101    -1.6266704457059e-13
 102     0.010567671900603
 103    1.6942205175125e-15
 104    2.2973778216962e-14
 105     -0.12117908710461
 106    -1.3990209597723e-13
 107    1.3321864658434e-13
 108    7.8435293406571e-16
 109     0.088661216686923
 110    4.8640552894284e-15
 111    6.531675562878e-16
 112      0.11612504091688
 113    1.2978491889712e-15
 114    2.5438765576491e-14
 115    -6.8060883534519e-13
 116    -0.047621927131637
 117    2.9394020247284e-16
 118    1.7157301589054e-14
 119     0.075723954792038
 120    2.0633851944457e-13
 121    3.6091170101067e-13
 122    -4.7273296402308e-15
 123      -0.0293967195942
 124    -6.7143196374546e-15
 125    2.9448761299293e-15
 126     -0.16722267806863
 127    4.7570246815479e-16
 128    1.8834080540502e-15
 129    -2.2645818535618e-13
 130     -0.02705399532306
 131    -2.4652917639426e-14
 132    -1.2096810686176e-15
 133    -0.083063690286578
 134    4.2773171546879e-13
 135    1.1123350909681e-12
 136    8.8264866456361e-16
 137    -0.0067444851680662
 138    -5.8457545785457e-15
 139    3.3709900133252e-16
 140     0.085376532427874
 141    -2.7998915938363e-14
 142    -3.5012950049693e-14
 143    7.0074261477479e-15
 144    3.5970292782634e-14
 145    2.0406109928963e-14
 146    3.5163011426798e-14
 147    -3.1822072238826e-14
 148    -6.0228591884452e-14
 149    3.8814795104662e-15
 150    1.2423814792611e-14
 151    -2.3902702043074e-14
 152    -4.1901916830787e-14
 153    -2.0797098885773e-14
 154    -9.2201300718063e-14
 155    -4.0490517547336e-15
 156    -7.8752369217195e-15
 Sym= A
 Ene=     1.808587646
 Spin= Alpha
 Occup=    0.00000
   1    -0.036999164976391
   2    -0.065345773000066
   3        18.38935133259
   4    2.4070302725635e-15
   5      0.11161615972671
   6      0.11195081015812
   7    -1.0746663509288e-15
   8      -4.2099486831455
   9       13.878585819495
  10      0.12058364729411
  11    -1.0899233863982e-14
  12     -0.12275290920481
  13     0.030713453499822
  14    2.6732698207539e-14
  15    -0.0028474072145053
  16      0.12454160420086
  17       5.5398403623077
  18    -7.8718446281022e-15
  19     -0.15893493886268
  20     0.057958081829417
  21    -4.5425499884341e-15
  22     -0.88486465051175
  23       1.6934445059202
  24     0.004499241615928
  25    5.1988283653388e-15
  26     -0.03197020440824
  27    -0.053127916013239
  28    -1.7869623265689e-14
  29     0.023241430032512
  30      0.17009579721217
  31      -2.7376445978767
  32    4.9016231288577e-15
  33     0.032502822203183
  34     0.043349744722635
  35    7.1657745216772e-15
  36        1.046437278742
  37     -0.31417612211336
  38      0.07826447945578
  39    1.759786837659e-15
  40    -0.086318762307965
  41    -0.012815276231702
  42    2.8460666726216e-14
  43    -0.039049412944472
  44     -0.64825918023074
  45       4.6694384396625
  46    3.6662469708948e-15
  47      -0.1567229030241
  48     0.016460284117717
  49    1.0843783065054e-15
  50       1.7687615531987
  51       2.2079670510347
  52     0.017082169500989
  53    -4.8078873272129e-15
  54     0.010059699043392
  55    0.0057905021313345
  56    -3.6052774367923e-14
  57     0.044194859147774
  58      0.60614786168683
  59      -6.9730197076584
  60    -2.3022046882868e-16
  61      0.09056768477616
  62     -0.21351126268809
  63    -1.4494910831579e-14
  64       -4.519291374985
  65     -0.49433006985845
  66     0.088692415722405
  67    -9.454763547384e-15
  68     0.038253220113744
  69     0.039706878717755
  70    -6.8815449525565e-15
  71    0.0013709157536828
  72     -0.11637743985961
  73      -8.4657783175993
  74    6.8464814811124e-16
  75     -0.34327810141859
  76      0.21499276305116
  77    2.4667316329649e-14
  78     -0.93981301743571
  79      -10.586990436332
  80    -0.033254509899375
  81    1.5691464877009e-14
  82      0.21366206908682
  83     0.096632415223016
  84    -2.6305349182676e-14
  85    -0.054092534983314
  86      -0.2208579387734
  87       16.270002866391
  88    -8.2881960267715e-15
  89      0.31948063610923
  90    -0.029429066232682
  91    -1.8614211233366e-14
  92       2.4713500397179
  93      -6.8275653878775
  94     0.093766883675199
  95    -6.5348810676253e-15
  96     -0.21534439989306
  97    -0.0001682744248077
  98    1.1649570187405e-14
  99     0.019478014656488
 100      0.37794479104038
 101      -5.0302990774416
 102    -1.6814193826208e-15
 103     0.016897157803189
 104      0.17209628249239
 105    1.3534687743409e-14
 106      -3.0155514116839
 107        3.825255308438
 108     -0.16763726831764
 109    -1.2228104807435e-14
 110    -0.012997800773723
 111    -0.027022913204369
 112    -8.9038140122702e-15
 113     0.027636864814789
 114      0.14865855110351
 115      -11.718765554109
 116    3.8766197577379e-15
 117      0.16753201267144
 118      0.46599227970858
 119    -5.5051849048488e-15
 120       3.3251505670123
 121       6.0624297197237
 122      -0.2454761138299
 123    3.4977088879328e-15
 124     0.074487583824547
 125     0.037321954164777
 126    1.3906617351505e-14
 127    0.0090762257232069
 128      0.18555625984711
 129      -7.0349999379433
 130    3.3691116090078e-15
 131     -0.28194192189257
 132     -0.11350929940614
 133    -1.4215027896996e-15
 134       7.1311580930621
 135       22.339878061236
 136     0.050168398109501
 137    3.7475728944342e-15
 138     0.023810853171404
 139     0.034700640797504
 140    -8.3723309729217e-15
 141     -0.25075969718309
 142     -0.11907536775241
 143      0.22209617056208
 144      0.20207618180323
 145      0.19435220062794
 146       0.5705835153872
 147     -0.38689412987781
 148      -1.1143971227064
 149      0.03562809271825
 150      0.38685644472904
 151     -0.47293791865917
 152      -1.1416213019077
 153     -0.41271740862896
 154      -1.4765781117093
 155     -0.30709958051102
 156     0.072598447006219
 Sym= A
 Ene=       1.8107016
 Spin= Alpha
 Occup=    0.00000
   1    -2.4265093580824e-15
   2    -1.4793061652949e-14
   3    1.2026933056243e-12
   4    -0.053831880187138
   5    3.9785205237256e-15
   6    1.519492705563e-14
   7      0.14142571651722
   8    -2.0111172097617e-13
   9    7.5539539874974e-13
  10    5.3565774288537e-15
  11      0.15996917240356
  12    -1.0169207788091e-14
  13    -1.166241350387e-15
  14     -0.23391300815916
  15    6.7873384538083e-16
  16    6.2214237415192e-15
  17    2.6571177484161e-13
  18      0.16019297317728
  19    -1.1041656048611e-14
  20    -8.0162197290954e-16
  21    -0.069431740102796
  22    -6.7699390782059e-14
  23    5.3366025904326e-14
  24    2.3467553099135e-15
  25     0.038353040668619
  26    -2.8330623582298e-16
  27    -1.1809060804442e-15
  28      0.53824072398562
  29    6.7786981275123e-16
  30    1.4251121676425e-14
  31    -1.6689379110303e-13
  32     0.066328473722858
  33    7.6145555465608e-15
  34    -1.3287521404447e-15
  35    -0.013468541416611
  36    5.0906192972584e-14
  37    -4.8993519926798e-14
  38    8.3547889660801e-16
  39     -0.37155631427651
  40    -5.1854024605858e-16
  41    1.7229417651268e-15
  42    -0.044962144272997
  43    -2.372792081879e-15
  44    -4.0430540821916e-14
  45    2.4798244660667e-13
  46    -0.024477715185527
  47    -4.5052495522819e-15
  48    -2.2694211958257e-15
  49    -0.051510215000433
  50    9.2233360010577e-14
  51    1.4403593294414e-13
  52    2.8308233216186e-15
  53     0.003383859218982
  54    -1.2861153823185e-15
  55    6.5494152584623e-16
  56      0.10333233077033
  57    2.4121221623903e-15
  58    2.8221245306009e-14
  59    -3.2322738121263e-13
  60    -0.049055416225175
  61    6.4596331076368e-15
  62    -6.5380727709049e-15
  63      0.15212931990975
  64    -2.1624456826943e-13
  65    -1.4823861692848e-14
  66    6.1074465395818e-15
  67    -0.00041329034817723
  68    1.3696951172242e-15
  69    1.2611996056145e-15
  70      0.17851954596719
  71    -4.1751848300941e-16
  72    -1.2111003420171e-14
  73    -3.6397269724727e-13
  74    -0.0097247141876251
  75    -1.8040929790434e-14
  76    4.5205161859734e-15
  77     -0.18115057099792
  78    -4.1765106059178e-14
  79    -4.2783593974502e-13
  80    -2.3024802233865e-15
  81     -0.23440820628784
  82    1.5645733186558e-14
  83    2.7208102871481e-15
  84      0.32228940612771
  85    -2.918353703542e-15
  86    -9.5865996452512e-15
  87     8.22690578143e-13
  88      0.13596338031282
  89    1.6322709826583e-14
  90    -1.7577762818632e-15
  91      0.14110148256292
  92    1.8587281311084e-13
  93    -2.8573625749631e-13
  94    2.4643446542301e-15
  95      0.14444673851082
  96    -1.4559918662253e-14
  97    -1.6944727282508e-15
  98     -0.17017368007521
  99    1.2550083000732e-15
 100    2.8186758604537e-14
 101    -4.0671645179677e-13
 102    -0.0086050941462943
 103    9.7356185711115e-16
 104    1.0304901880767e-14
 105     -0.11164393585584
 106    -1.7623966308731e-13
 107    2.8487566646959e-13
 108    -1.1713191148532e-14
 109     0.083961392958334
 110    -1.302270077756e-16
 111    -4.4503360792741e-16
 112      0.14613374100892
 113    2.0548055390465e-15
 114    1.0835858156057e-14
 115    -7.9795834411503e-13
 116     -0.06479054463969
 117    1.0812127509587e-14
 118    3.3738013325832e-14
 119      0.10133615679539
 120    2.3114057613525e-13
 121    4.0293617416143e-13
 122    -1.5893651809032e-14
 123    -0.010904321788225
 124    3.5412910704313e-15
 125    2.440054635602e-15
 126      -0.2315250478318
 127    4.2700471614005e-16
 128    1.2806772615104e-14
 129    -3.1207363115552e-13
 130    -0.030091483518557
 131    -1.5053907455556e-14
 132    -1.3960973653279e-14
 133     -0.10770811053894
 134    4.4348618194905e-13
 135    1.4665906904524e-12
 136    2.4593802635647e-15
 137    -0.011633471057325
 138    3.5645474863863e-15
 139    7.8997536109224e-18
 140      0.12404884172337
 141    2.2309401571052e-15
 142    3.3021708870569e-15
 143    -5.5350584176824e-15
 144    1.1513533351827e-14
 145    1.7057990744209e-14
 146    3.8085045209535e-14
 147    -1.558771126216e-14
 148    -5.6841679642941e-14
 149    3.3989106359833e-15
 150    3.2867073067463e-14
 151    -2.8255031524554e-14
 152    -8.005007838069e-14
 153    -2.679912180072e-14
 154    -9.8879916102277e-14
 155    -1.8548214747023e-15
 156    -8.8775398026656e-15
 Sym= A
 Ene=     1.835733776
 Spin= Alpha
 Occup=    0.00000
   1    -0.014443692560983
   2      0.13521196462349
   3      0.32186361108634
   4    -9.6893887167679e-16
   5      0.19653431923843
   6    0.0022493774202638
   7    5.7757575002455e-15
   8      -1.9382076638536
   9         1.67106288312
  10     0.005471029775733
  11    8.9609810386213e-16
  12       0.1723546201489
  13     0.044379017068004
  14    4.7143881335875e-15
  15    -0.010949820841307
  16      0.45391444919003
  17    -0.0044740679521576
  18    4.1746386036953e-15
  19     -0.16339411345885
  20      0.19507362239842
  21    -6.5735173019329e-15
  22       1.3224173714275
  23       1.1511493838131
  24    -0.077616722959813
  25    5.1873351790541e-15
  26     0.039056451352714
  27     0.011534468200148
  28    1.3888109062386e-14
  29    0.00030064207305216
  30     -0.12851446525621
  31     0.056685430419873
  32    5.1483650686231e-15
  33    -0.0046458144137892
  34     -0.08688261906805
  35    4.381240292801e-15
  36      0.13593116760744
  37       1.9560272135981
  38      0.11149353765759
  39    -1.495607758532e-14
  40     -0.14187579577518
  41     0.059481270913314
  42    1.3292538132807e-14
  43    -0.018336139881919
  44     -0.21851189491294
  45      0.91468312407281
  46    6.5126607095685e-16
  47    -0.096980493344496
  48    -0.023929025390581
  49    -2.3208610279358e-15
  50      0.91472759250778
  51    -0.022425301151318
  52      0.01940585175152
  53    -3.8784692483792e-15
  54     0.040163379718594
  55      0.10519420732646
  56    -1.5781578220753e-14
  57     0.012182912018531
  58      0.74855415029005
  59      -1.2246349023303
  60    -5.1872170839223e-16
  61      0.23830542487897
  62     0.094249139992868
  63    -2.202345258368e-15
  64      -1.3782584666867
  65     -0.74154713709542
  66    -0.052117052483234
  67    -5.006536259331e-15
  68    -0.055339457877338
  69    -0.0007322598535685
  70    2.4606999028315e-15
  71    -0.043452350071871
  72     -0.57455780447792
  73       5.6569976410227
  74    -1.1197296883029e-15
  75     0.025034080115528
  76      0.13251592301139
  77    6.3624782658162e-15
  78      0.11070167796677
  79       1.5892309785027
  80     0.080299516518626
  81    -6.1572841669023e-16
  82     -0.19620431765675
  83     0.042837270798654
  84    -2.9945876054196e-16
  85     0.052172406429917
  86      0.50408283170473
  87      -4.7431700937552
  88    6.6325933787593e-16
  89    -0.021331198887243
  90     -0.13623794823221
  91    -4.4499578646605e-15
  92      -0.8933870948428
  93        3.094731345018
  94     -0.15195489634814
  95    1.2385641213276e-15
  96      0.26976427641239
  97     -0.05632124323321
  98    2.8410818595228e-16
  99    -0.025163668996203
 100     -0.66253072182955
 101       2.5615122479165
 102    -9.7643701916791e-16
 103     -0.04660040600039
 104      0.21527456537913
 105    3.2519802141131e-15
 106       2.0107593261952
 107      -1.8983866005882
 108      0.17365120886497
 109    -3.3882432811003e-15
 110     0.046106737137757
 111      0.07361518004607
 112    1.2167442091112e-15
 113     0.012402379553484
 114      0.63537877273397
 115      -4.1531237402454
 116    -1.1595343506436e-16
 117     -0.13590365418166
 118     -0.20752143796912
 119    3.7139223110807e-16
 120       1.7645356420389
 121       1.8303283791098
 122     0.095551184859451
 123    3.5735106953788e-15
 124     -0.15826842870994
 125     0.060525123796281
 126    -1.3669539520966e-15
 127    0.0046750529488215
 128     -0.25312351783096
 129      0.24223630399127
 130    5.2850027726254e-16
 131      -0.1974821618734
 132    0.0007994642824857
 133    -4.8779326979858e-15
 134       1.9660570514126
 135       1.0827407528381
 136     -0.11353356136538
 137    1.1453210021645e-15
 138     -0.12416403096351
 139    -0.087770813177898
 140    -1.1258890462921e-16
 141     -0.36701571813961
 142     -0.44950091312443
 143      0.39164545321378
 144       1.2024059155351
 145    -0.033543286724078
 146     0.089857800014014
 147     -0.22975401458656
 148     -0.34639534252764
 149    -0.082175489739388
 150     -0.18116538229816
 151      0.22397297831018
 152      0.67792910640128
 153     -0.02842335564431
 154     -0.59314098812481
 155     -0.39071620799998
 156    -0.089927130780991
 Sym= A
 Ene=     1.961508533
 Spin= Alpha
 Occup=    0.00000
   1    -0.0008204651082751
   2      0.19794876766158
   3       1.8133964484632
   4    1.1889139044118e-15
   5      0.10945469724223
   6      0.25877134783468
   7    5.5036086106342e-15
   8      0.61771562340817
   9     -0.97036626408533
  10     -0.11401429554073
  11    1.8218350278602e-15
  12     -0.35626614001567
  13    -0.071786158630443
  14    8.8290759182334e-16
  15     0.028921314767075
  16     0.084124898739766
  17      -2.5728433270955
  18    3.3542345474475e-17
  19      0.01792574037622
  20     -0.12799750351566
  21    -1.8403443955648e-15
  22       1.1081454346255
  23     -0.13652301279028
  24      0.13225204315137
  25    -5.2141988003797e-15
  26     0.034155132477931
  27    -0.011527950276822
  28    1.0654262645953e-15
  29    -0.011635261383303
  30     -0.53074668278205
  31       2.4264820967242
  32    2.2214483875336e-15
  33    -0.032793272466408
  34     -0.14033858021653
  35    -2.7897367460307e-15
  36     -0.77000092971735
  37        1.593792875706
  38     0.066358944433306
  39    2.9689006165207e-15
  40    -0.021030778304265
  41    -0.077560143246507
  42    1.993111785895e-15
  43     0.016906125980821
  44      0.28684993113116
  45      -1.4985012727117
  46    -6.4061977990621e-16
  47    -0.0048877188264995
  48      0.08838772400732
  49    2.0495078280537e-15
  50      -1.0650133589591
  51      -1.3509595127648
  52     0.013443134935118
  53    -2.6771564773008e-16
  54    -0.026763334012317
  55    -0.087181942025923
  56    -1.015535380611e-15
  57     -0.01382772946441
  58     -0.26758249901752
  59        3.250159138857
  60    3.034862692841e-16
  61    -0.008653666317416
  62    -0.082509022455458
  63    -2.4045945491785e-15
  64       0.7354280853727
  65       1.3610991056282
  66     0.080486897878543
  67    5.0535084714034e-16
  68     0.052360083597322
  69    -0.029792339182726
  70    -3.5299267334962e-15
  71    0.0064301596747705
  72     -0.19661051747879
  73      -1.4414156486125
  74    1.084909233352e-15
  75     -0.14745436469608
  76     -0.10164283440294
  77    1.2103940442199e-15
  78       2.7019882246812
  79       1.7887065806992
  80     0.007132339000968
  81    -3.2761262257822e-16
  82      0.19117810877268
  83    -0.064600152972395
  84    -2.6812161335429e-15
  85     0.025039673216986
  86     0.069833439269377
  87      -2.4215755884481
  88    -6.6780837777753e-16
  89     -0.16109465327193
  90    -0.059983352082268
  91    -3.751181974608e-16
  92      -2.9141590427422
  93      -1.9044486397883
  94    0.0095962158757531
  95    2.7644248021133e-15
  96    -0.076731961065886
  97    -0.066252311106346
  98    2.223317029773e-15
  99    -0.028528724680478
 100      0.15330444616578
 101       1.2693312405559
 102    -1.2018590922248e-15
 103     0.039732512514492
 104     -0.18436048602663
 105    2.1904489116802e-15
 106     -0.69359696154321
 107     -0.53057608935207
 108     0.046137293035761
 109    -2.5906764602632e-15
 110      0.22942422544486
 111     0.073438270819085
 112    -1.1031888991163e-15
 113     0.034130405253819
 114      0.16857030076398
 115      -5.4369897220883
 116    -5.9056184859467e-16
 117     0.086858339810308
 118      0.23628848115392
 119    2.881585955794e-15
 120       2.3563954764309
 121        3.440994569955
 122      0.31208284300833
 123    -7.2482919087627e-15
 124     -0.41193277666126
 125    -0.0045154467365685
 126    1.1874352559611e-16
 127     -0.04359674473017
 128     -0.37784115992315
 129       6.9579827191813
 130    -2.0203706412341e-15
 131    -0.016786066107486
 132    -0.040895572044008
 133    -6.6767570803051e-15
 134       1.0329225690815
 135       5.3655525656277
 136     -0.11570614031166
 137    1.6818953978642e-15
 138      0.28053405462838
 139     -0.20335280177175
 140    -2.3517603060511e-16
 141     0.061938019119533
 142     -0.22658337740763
 143      0.20062061911872
 144      0.41126118628159
 145     -0.21788375690023
 146     -0.46688341640634
 147    -0.075444926304103
 148     0.029553628043669
 149     -0.48980310667691
 150     -0.52233139165724
 151      0.18354133372966
 152    -0.071160760479961
 153     -0.33435504652844
 154      -1.0539816310092
 155     -0.11098288686988
 156       0.0682026598273
 Sym= A
 Ene=     2.028282509
 Spin= Alpha
 Occup=    0.00000
   1    4.9126087795784e-16
   2    3.9230497342246e-15
   3    3.1409791286493e-14
   4     -0.04430052639263
   5    5.0931415823563e-16
   6    -4.9295431201253e-15
   7     -0.61987533389573
   8    1.8735507374415e-14
   9    1.3316764972816e-13
  10    -1.5241922286137e-15
  11     -0.42090317858726
  12    -2.9791326475951e-15
  13    -2.3283642666225e-15
  14     -0.18263494634946
  15    -3.2877704728781e-16
  16    -5.3170220250407e-15
  17    8.158517503866e-14
  18    -0.087670061887675
  19    1.7651275270994e-15
  20    -6.3330334734912e-16
  21       0.3217512612855
  22    -4.8265193699455e-14
  23    8.3097904671469e-15
  24    -4.917629344293e-17
  25      0.30277473593028
  26    3.4322529746315e-15
  27    -3.4465298204559e-16
  28     -0.36794154519288
  29    8.387820131788e-16
  30    6.9486440990381e-15
  31    -7.3656772624628e-14
  32     0.055071615599715
  33    -4.2104269735675e-15
  34    -5.11440196189e-16
  35    -0.083566763104737
  36    3.1265662801882e-14
  37    -1.8646010854764e-14
  38    4.0758500913583e-15
  39     -0.12983866718784
  40    8.9234289525037e-17
  41    4.4340055022555e-15
  42     0.040066834392741
  43    -8.2450763025205e-16
  44    -4.1675115960175e-15
  45    8.6311542620246e-14
  46     0.029934508836762
  47    1.9398599323182e-15
  48    -3.0612232315067e-16
  49    -0.056943881901828
  50    2.1585007593768e-14
  51    2.7240437550864e-14
  52    3.8434292357563e-15
  53      -0.1118379398218
  54    -1.5551586439894e-16
  55    1.3464508605096e-15
  56     -0.10756640135273
  57    8.2532418568081e-16
  58    3.9644238215964e-15
  59    -1.2595722141929e-13
  60    -0.051682274923372
  61    -3.2109548173658e-15
  62    -4.487045108927e-15
  63      0.15621869573427
  64    -7.1988507720924e-14
  65    -8.1968530411569e-15
  66    4.0801482643252e-16
  67      0.13246016746635
  68    -3.1439768866109e-15
  69    -1.3126479985667e-15
  70       0.2277573018415
  71    2.2372857547766e-16
  72    -1.3910022554622e-15
  73    -9.3471214909351e-14
  74    -0.041279321577313
  75    -4.3223162403873e-15
  76    3.5283372214437e-15
  77     -0.16390946302516
  78    1.5521639795912e-14
  79    -2.1068211791706e-13
  80    -1.8269358441385e-15
  81     -0.27401824109018
  82    2.0037075376384e-15
  83    -2.1433307064801e-15
  84      0.19782001530707
  85    -2.9452770681703e-16
  86    -5.5980399433366e-15
  87    1.7915168894372e-13
  88     0.099410830254571
  89    -3.7394603029667e-15
  90    -2.2288164205949e-15
  91      0.16631624463882
  92    -3.091356332984e-14
  93    -1.3011551186762e-13
  94    1.1292773990035e-15
  95        -0.11622868754
  96    -1.9064898955208e-15
  97    -5.2950842610245e-16
  98    -0.038118335212476
  99    1.1974234585912e-16
 100    8.5141161640295e-15
 101    -1.9422837399249e-14
 102     0.090495037440284
 103    -5.9673645554563e-16
 104    -3.1242481363434e-15
 105     -0.32423045766793
 106    -4.564753893676e-14
 107    2.4338848837948e-14
 108    -1.3743754735363e-17
 109      0.52484891152195
 110    2.3655467828926e-15
 111    9.0074115410005e-16
 112    0.0037634052286803
 113    -2.3322290477679e-16
 114    -4.0876021993383e-15
 115    1.7669024082912e-14
 116     0.035640243672277
 117    -8.3603261142968e-16
 118    1.7780097361139e-15
 119     -0.18036533112308
 120    -3.6195599277572e-15
 121    -5.0829338219979e-15
 122    3.2419425705515e-15
 123      0.25687788601915
 124    -3.2813316790713e-15
 125    -5.1636653306999e-17
 126     0.057898904760248
 127    -5.1973091051844e-16
 128    -1.4734567183954e-15
 129    -6.0660420804209e-14
 130      0.14509086254349
 131    1.111354970938e-15
 132    -1.951698766517e-16
 133      0.67431706885872
 134    -4.0475392403819e-14
 135    8.8271996995074e-14
 136    -1.6612101169201e-15
 137     -0.15081613152865
 138    1.8888764844412e-15
 139    -3.8006014868979e-15
 140    -0.069969078811746
 141    1.4817297203084e-15
 142    9.9667385017672e-15
 143    2.4018273631664e-15
 144    1.8943144082914e-15
 145    -3.5917103267879e-15
 146    4.7609090546835e-15
 147    -6.9407911426166e-15
 148    -1.4902074614142e-14
 149    -6.9986831589582e-15
 150    -4.4371095350071e-15
 151    -3.2867187287333e-15
 152    -1.1560425424632e-14
 153    -3.2806125134037e-17
 154    1.3143208185702e-15
 155    -5.5520120120338e-15
 156    -1.7182335101933e-15
 Sym= A
 Ene=     2.036712194
 Spin= Alpha
 Occup=    0.00000
   1    -0.060474812449279
   2     -0.76225725024352
   3       18.724773179177
   4    6.6233832512378e-16
   5     -0.16739881364287
   6     -0.34848939669716
   7    7.987987137495e-15
   8      -1.3045983632446
   9       16.990848020358
  10    -0.013587219029836
  11    4.842208646918e-15
  12    -0.071515384659052
  13    -0.046247476262636
  14    9.9819793965814e-16
  15    -0.0083059957137376
  16     -0.01402567164221
  17       6.3703247549293
  18    1.5841555470621e-15
  19     -0.14743571830993
  20      0.18037854285193
  21    -4.0845039612079e-15
  22      -3.5492405943776
  23      0.62017389996762
  24     0.031731864210073
  25    -3.9025799925538e-15
  26     0.084867829140009
  27    0.00050139265544693
  28    2.7708479648169e-15
  29     0.022578124484444
  30      0.12817983777764
  31      -3.6713875363958
  32    -1.0075003316447e-15
  33      -0.1992311685524
  34     -0.22916382465625
  35    1.737656558859e-15
  36       1.1474289493318
  37     -0.54571886709365
  38     0.065115654428524
  39    3.5662840700581e-17
  40    -0.0053460526797581
  41     0.046332030824127
  42    -5.4232138126109e-16
  43    -0.021592854718349
  44     -0.29766163010354
  45       3.1869139596921
  46    1.2658594389583e-16
  47    -0.040771373915121
  48    -0.012597652491826
  49    3.9826567109689e-16
  50       1.2542793971963
  51       1.0099484415614
  52      0.11835481012734
  53    1.3743647001046e-15
  54    -0.0047835650964044
  55     0.036110473993806
  56    1.1027600448341e-15
  57     0.029580172400546
  58      0.12708206255156
  59      -8.6222130564589
  60    1.2054331469358e-16
  61     -0.13549581388515
  62     -0.29080529323813
  63    -9.264817913723e-16
  64      -3.2665736109618
  65      -2.1389817573921
  66    -0.020843002391369
  67    1.9543822297121e-16
  68     -0.17254998692592
  69    0.0089598199693736
  70    -1.5979179805989e-15
  71     0.040461881376741
  72      0.59086320839088
  73      -10.610169869907
  74    6.5334359662872e-16
  75    -0.047626547697068
  76       0.4020550867627
  77    -1.1627746544248e-15
  78      -4.0335299748651
  79      -15.676424539964
  80     -0.17686867981211
  81    2.7049987469055e-16
  82    -0.036854965022854
  83    -0.047728340294902
  84    -1.5931576456536e-15
  85    -0.070262618051002
  86      -1.0142979558756
  87       20.867596177246
  88    -7.5913665761473e-16
  89     -0.20530329525093
  90     -0.25722588782947
  91    1.5640215805447e-15
  92       4.2507317582122
  93      -6.5430011537885
  94    -0.011676827875165
  95    1.3810765546383e-15
  96      0.13199821481491
  97    -0.037166931781642
  98    2.3085722332298e-15
  99     0.052115557987529
 100      0.84579535102664
 101      -8.9618993203411
 102    -4.8134292132393e-16
 103      0.09863014263535
 104     0.016694478051707
 105    1.7444105012836e-15
 106      -3.6700272640629
 107       5.0995624666891
 108     0.063895974831222
 109    -2.7232197581721e-15
 110     0.044372020523863
 111      0.19842801211214
 112    -3.6591039538077e-16
 113    -0.064569331217803
 114     -0.54048577234039
 115       1.8941746611136
 116    -2.886662009149e-16
 117     -0.30311710148721
 118     0.078691750859034
 119    3.3464097277446e-15
 120      -1.2205648407492
 121      -1.7613636661827
 122     0.077209229588292
 123    -5.8845648859575e-15
 124    -0.010312549384724
 125       0.1926731727004
 126    4.8073725827636e-16
 127     0.071628396808507
 128      0.96416636371899
 129      -20.029143274179
 130    -1.3270741131508e-15
 131      0.10441321375479
 132     -0.16330022249434
 133    -9.6075764191246e-15
 134      -0.8512306571618
 135       14.487613933778
 136     -0.22843145850626
 137    1.8211416827292e-15
 138     -0.11245880969829
 139     -0.12356841401753
 140    -5.569962649572e-17
 141      0.35403007027479
 142      0.80644860622345
 143     0.059680851497724
 144      0.45967993052274
 145    -0.050219505820864
 146      0.19901587838691
 147    -0.074499666843187
 148     -0.58942621513758
 149    0.0037273955059636
 150      0.79231770236232
 151     -0.41718929105967
 152      -1.2992531816379
 153      0.30352421325471
 154      0.62732875553125
 155     -0.12698784311061
 156     -0.19668471296792
 Sym= A
 Ene=     2.089417174
 Spin= Alpha
 Occup=    0.00000
   1    -0.038774491137853
   2     -0.33482327640734
   3       7.0672898556453
   4    -1.7403772760326e-15
   5     -0.27733933477088
   6      0.19482460531825
   7    -3.2810576224083e-14
   8      0.40118504587838
   9      -2.6006918643177
  10     0.066237456891621
  11    -8.3363553190581e-15
  12     -0.14785486576494
  13      0.31044927816353
  14    2.4740942424801e-15
  15     0.052379807145604
  16      0.72794885925658
  17      -6.1774744943544
  18    -1.2974925265362e-15
  19    -0.033229206565946
  20     -0.15506822869196
  21    1.2200184137457e-14
  22       2.8647772197941
  23     -0.90515159052356
  24    -0.037417414941357
  25    1.3208485431206e-14
  26     -0.19156230659597
  27      0.04312788174938
  28    8.7842061684195e-16
  29    -0.041866333695537
  30     -0.58068300156691
  31       4.2708705629346
  32    2.9504448696663e-15
  33     0.097209555648613
  34    -0.048097270274584
  35    -2.6176325640003e-15
  36      -1.9488197749253
  37       2.9054239376667
  38     -0.11747764752379
  39    -5.0528821256729e-15
  40     -0.19105739525679
  41     0.021511153008758
  42    -4.6246178559726e-15
  43     0.033876133172435
  44      0.67455395698323
  45      -4.4733486417854
  46    -3.3103903390249e-15
  47     -0.15035729522899
  48      0.16645726847925
  49    -1.8273884151535e-16
  50      -1.3304737030742
  51      -2.7203143875575
  52     -0.14825684409114
  53    -2.0960975549837e-15
  54      0.18830305021915
  55      0.01759418970945
  56    -4.2475089069245e-15
  57    -0.032556097376949
  58     -0.15274237648133
  59       3.1546450214993
  60    2.9338750924742e-15
  61     0.029481353430984
  62     -0.15102024645942
  63    -1.0677190259273e-14
  64       2.1029418845461
  65     -0.24569393140026
  66     -0.20360491656805
  67    -1.8309897062106e-14
  68       0.2117052945815
  69     0.027642922210505
  70    -1.3179706806737e-14
  71     0.028870852794137
  72      0.69068560912915
  73      -3.3217262255942
  74    2.9442353372765e-15
  75      0.26000656064412
  76     0.098744717910234
  77    3.1867390380351e-14
  78      -2.1067514942594
  79       1.2262995085816
  80      0.10585266909384
  81    7.1448243158521e-15
  82    -0.072008425105029
  83       0.2811081842205
  84    9.3148698398261e-15
  85    -0.027983733796766
  86     -0.51129067623992
  87       2.8222422042349
  88    9.3852844844693e-16
  89      0.11029884728142
  90    0.0023280813473486
  91    -2.7652335360548e-14
  92       2.7049786706495
  93      0.73070736928681
  94     0.065512862192653
  95    1.3213403487083e-14
  96     0.087010875430838
  97     0.083272235699551
  98    -1.7927382534346e-14
  99     0.018033037926337
 100      0.06702571435693
 101      -3.2330691148713
 102    -9.4481805290997e-16
 103      0.14102232502693
 104      0.12213857041319
 105    3.0446592135588e-15
 106      -0.6897900610267
 107       1.1936087289788
 108     0.055236589469655
 109    -1.1159989044964e-14
 110     0.095012846158981
 111    -0.020852812708211
 112    -3.9639667708054e-15
 113    -0.017545041129442
 114     -0.32900830959171
 115       1.2565514124025
 116    8.8724671965749e-16
 117     0.010032950449147
 118      0.06608632674948
 119    -1.4119567506691e-14
 120     -0.72155292814591
 121      -0.6301061603474
 122      0.09055331159418
 123    3.9040563314047e-14
 124    -0.065683580082175
 125    -0.030118487589544
 126    -6.7666439445305e-15
 127     0.032697607832058
 128      0.58131020890953
 129      -2.5161816619995
 130    6.7964833492817e-15
 131      0.03860204634331
 132    -0.067204231098815
 133    3.2637760432999e-14
 134      0.24926047454516
 135       1.6356529839683
 136     0.020321915310528
 137    -4.3163780896445e-15
 138     0.049495270829984
 139      0.20584702547614
 140    9.8001278731579e-15
 141    -0.064376151182335
 142     -0.49798634034951
 143      0.31925290981513
 144      0.92357746280569
 145     -0.30440700735192
 146     -0.67921691482965
 147     0.048390265822158
 148      0.47698113951442
 149      0.37428140311313
 150      0.33808341553458
 151     0.015757928979745
 152     -0.22004999639776
 153     0.052498150580975
 154      0.24090266676167
 155    -0.077426727652444
 156     0.034650703610329
 Sym= A
 Ene=     2.135146204
 Spin= Alpha
 Occup=    0.00000
   1    1.4272786633824e-15
   2    7.775112935306e-15
   3    -2.7111054739695e-13
   4    -0.020607477329806
   5    1.3388275197248e-14
   6    -8.3692978604328e-15
   7     -0.63018873159006
   8    -2.0164836057127e-14
   9    1.2538211496587e-13
  10    -5.3181425466174e-16
  11     -0.11624224167345
  12    9.7097974591726e-15
  13    -1.6495832787821e-14
  14    -0.004297253843445
  15    -2.2656415179209e-15
  16    -3.2221119466835e-14
  17    2.6009708866001e-13
  18    -0.019548159921538
  19    2.0216532498584e-15
  20    8.6170601783712e-15
  21      0.22515317486237
  22    -1.1084963794657e-13
  23    4.0060031009196e-14
  24    6.4545709231035e-16
  25      0.16541982722409
  26    6.9916551632498e-15
  27    -6.0212987152673e-15
  28     -0.11353978997886
  29    1.4680290048438e-15
  30    2.4726795318611e-14
  31    -1.6597405512594e-13
  32     0.012811348967869
  33    -4.4192457851972e-16
  34    7.0320344362389e-16
  35    -0.042206403214499
  36    7.2067460555189e-14
  37    -1.0841477967962e-13
  38    4.9644620722714e-15
  39    -0.0023013587287754
  40    9.6939222457725e-15
  41    -1.3448193041955e-15
  42     -0.16850132597917
  43    -1.1863853681526e-15
  44    -2.5807815325344e-14
  45    1.6877513607729e-13
  46    -0.049793357525264
  47    8.3553626565962e-15
  48    -6.3893979504718e-15
  49     0.083714944302561
  50    4.5541862734279e-14
  51    1.0121015144469e-13
  52    6.2130610220579e-15
  53     0.081601482214024
  54    -1.1278069521557e-14
  55    -5.6159221396719e-16
  56    -0.064871373867438
  57    1.360586692472e-15
  58    6.9594112196911e-16
  59    -1.2361860520649e-13
  60     0.051668965346544
  61    -3.3903367341333e-15
  62    4.9618635491167e-15
  63     -0.34437014976061
  64    -7.7411803711088e-14
  65    1.0586576986331e-14
  66    1.1789376550163e-14
  67     -0.39660187105442
  68    -9.5766173667614e-15
  69    4.0031028399792e-16
  70     -0.43315058447571
  71    -6.9864617848726e-16
  72    -2.4740353593611e-14
  73    6.4043610976841e-14
  74      0.11465365550554
  75    -1.2968879534769e-14
  76    -3.4574821350326e-15
  77      0.70709313886996
  78    8.7906678141525e-14
  79    -8.9264686767834e-14
  80    -6.431311097545e-15
  81      0.06132839133086
  82    5.5205454804282e-15
  83    -1.4925301661655e-14
  84     0.063708746791316
  85    1.1864745891692e-15
  86    1.7398542330646e-14
  87    -8.2728281471383e-14
  88     0.017426582463459
  89    -1.0358404462752e-14
  90    1.018885748866e-15
  91     -0.57472789593573
  92    -1.3496254501136e-13
  93    -7.4134040281799e-14
  94    -2.5475741881274e-15
  95      0.43126193688857
  96    -6.5509396036666e-15
  97    -4.5820262456058e-15
  98     -0.33311705330026
  99    -6.4315139154505e-16
 100    5.1773205591455e-15
 101    1.2112213385016e-13
 102    -0.054594707986181
 103    -6.4975050326335e-15
 104    -6.7331546918235e-15
 105      0.06031572896186
 106    9.1766332197289e-15
 107    -3.2747661580006e-14
 108    -1.8611059101114e-15
 109     -0.17339465858299
 110    -4.5237947936515e-15
 111    3.2324473338867e-15
 112     -0.12431038133863
 113    6.0768682360382e-16
 114    1.4035797967313e-14
 115    -3.55011909408e-14
 116     0.022263683271058
 117    -2.5502017241838e-15
 118    -1.979266410022e-15
 119     -0.22914702232706
 120    2.8844069318986e-14
 121    1.7382442550482e-14
 122    -1.2937792307231e-15
 123      0.55131392153198
 124    1.8761317385227e-15
 125    4.6943829717851e-15
 126     -0.12621424704613
 127    -2.0468257033214e-15
 128    -3.353994330914e-14
 129    1.2870341725283e-13
 130     0.079800325081696
 131    -1.0623929562532e-15
 132    5.0454995919179e-15
 133      0.62383384750008
 134    -4.502970448742e-14
 135    -5.5795195267647e-14
 136    -1.1138031769919e-15
 137     -0.09970220423767
 138    -4.1043378398011e-15
 139    -1.5494034206341e-14
 140      0.11625102464934
 141    -2.4769881659367e-15
 142    1.8189813541083e-14
 143    -1.1993917923989e-14
 144    -3.1057022364904e-14
 145    1.3834102348152e-14
 146    2.2816154532027e-14
 147    1.1304146363102e-15
 148    -1.7004239005284e-14
 149    -2.2493937170881e-14
 150    -1.7228334131631e-14
 151    -3.9403214026083e-15
 152    3.0159432123885e-15
 153    -1.997194950631e-15
 154    -8.1461719009727e-15
 155    2.652939511788e-15
 156    -2.5236554680965e-15
 Sym= A
 Ene=     2.179167608
 Spin= Alpha
 Occup=    0.00000
   1    -0.062950307938304
   2      -0.9172548775117
   3       7.4789709665676
   4    -4.0919635573412e-16
   5      0.31873217732571
   6     0.074429228579306
   7    2.5449777777364e-15
   8      -3.4357047998412
   9      -6.6747187747767
  10    -0.032756936719273
  11    1.0778686523549e-15
  12    -0.032139501001922
  13    -0.058566401787544
  14    -1.3384063579999e-15
  15     0.075262333841067
  16       0.8144367108403
  17      -9.5853286741909
  18    1.4208122662495e-15
  19     0.020023796571947
  20    -0.044300164217912
  21    -7.3977195552045e-16
  22        6.044219155426
  23      0.28438574247165
  24     0.057663200102513
  25    -2.7931149433086e-16
  26      0.14031630413289
  27    -0.058906374420001
  28    -3.9962752179052e-16
  29    -0.075431572491822
  30     -0.91502247290054
  31       8.6359045399583
  32    7.8938012955969e-16
  33     -0.13338227064746
  34     -0.16335954456555
  35    -6.7768924066559e-16
  36      -2.6396559399275
  37       5.7693636111089
  38      0.16907482873323
  39    2.1581488242611e-15
  40    -0.0055944715488725
  41     0.085609740936222
  42    -3.1791739099415e-15
  43     0.071200815189025
  44      0.91169023879165
  45      -8.6352542120421
  46    8.0438796401499e-17
  47      0.11654791093126
  48    -0.043433105137715
  49    -2.589341979629e-16
  50      -2.9188246814074
  51      -5.1891279414669
  52      0.18938045608057
  53    5.896647996103e-16
  54    -0.071638792146049
  55     0.077939049614888
  56    -3.9678493578754e-15
  57    -0.075545463710393
  58     -0.86404910370906
  59       11.206133060363
  60    2.0528940621681e-16
  61     0.015363449923392
  62      0.20131061156334
  63    4.7640538449893e-18
  64       6.1283675322595
  65      0.33142612358693
  66    -0.066045790146672
  67    8.669673514417e-16
  68      -0.2235955590189
  69    -0.011321999520418
  70    -2.1147390607677e-15
  71       0.0338130820508
  72      0.61340684017015
  73      -3.4249621929289
  74    4.9739378372812e-16
  75    -0.093867505900499
  76     -0.33946773606124
  77    -2.1947828639519e-15
  78      -1.5644288947685
  79       10.627737083631
  80    -0.059663394388618
  81    -2.9380529634834e-15
  82    -0.069738318089144
  83     -0.15195252125558
  84    -1.1080251747258e-15
  85    -0.010473680381207
  86     0.072352280656544
  87      -4.6497055762777
  88    6.6318777282507e-16
  89      0.14208138475701
  90      0.11332745923528
  91    2.2990575076465e-15
  92       2.1114120155956
  93         4.36698299532
  94    -0.060282321661855
  95    7.6582963850105e-16
  96    -0.055350088434924
  97    -0.061632329597768
  98    1.1919498756203e-15
  99    -0.0011575282048088
 100    -0.031216848369717
 101     -0.60976744004232
 102    -5.8216460874883e-17
 103      0.05199737037956
 104       0.0486203153168
 105    -1.1098119021473e-15
 106       1.4319275811921
 107      0.15061439530367
 108     -0.16046422295148
 109    3.1167021222131e-15
 110     -0.19337862936573
 111    -0.012395053341667
 112    6.8403914315539e-16
 113     0.022513252318528
 114      0.10452254596723
 115      -3.6822859255377
 116    6.3776080808945e-17
 117     0.071935347779726
 118      0.13624172538755
 119    1.6760142265853e-15
 120      0.95459186353248
 121       1.5660870342373
 122     -0.20858125450127
 123    -4.6123673803831e-15
 124      0.19483901164057
 125     0.033637628372129
 126    -1.2218702935576e-16
 127     0.021455138064618
 128      0.31127787187894
 129       2.7431195015817
 130    -9.2705034233153e-16
 131    -0.011494057541478
 132     -0.26584516266604
 133    -2.4643646092375e-15
 134       3.9212487777084
 135      0.92879382754456
 136     0.031398216260807
 137    7.1955284824095e-17
 138     0.011205027374457
 139    -0.017935132371177
 140    -1.8953335758106e-15
 141     -0.44520914594164
 142      -1.3448606536027
 143      0.41003023111911
 144       2.1717688010889
 145     -0.49253123252375
 146      -1.3813624646713
 147      0.32158741773506
 148       1.2276499287893
 149      0.01771783404459
 150      0.42133932051815
 151     0.071285953284942
 152      0.17090596252392
 153    -0.081366810198267
 154     -0.38230527860084
 155     -0.12096588095246
 156       -0.289606348859
 Sym= A
 Ene=     2.229652635
 Spin= Alpha
 Occup=    0.00000
   1    -0.0058900203253832
   2     -0.43216443791784
   3     -0.26687789871843
   4    1.7095989399677e-15
   5      0.14391824627194
   6     0.098703510828989
   7    2.9860068553652e-15
   8      -1.6780004737952
   9      -2.3759201475782
  10     0.074605462848728
  11    -9.4907722595739e-15
  12     0.052932779318412
  13     -0.12997179270807
  14    -1.7004851169911e-15
  15    0.00030605159547759
  16      0.15976376841201
  17      -1.5644876418847
  18    -1.9757369599003e-15
  19    -0.089355947055856
  20    -0.067732318856639
  21    -2.0305021626442e-15
  22       1.5875394858846
  23      0.77148878972928
  24      0.10557013415253
  25    -2.3938776532304e-15
  26     -0.23794006664385
  27    -0.014618434726653
  28    7.9028953275456e-15
  29     -0.01799199338498
  30     -0.53355745058169
  31       3.0274464531431
  32    3.4539686944196e-15
  33      0.24445644994158
  34      0.11047495399467
  35    -3.7274083104817e-15
  36     -0.85219134642034
  37      0.81534238645934
  38      -0.1863890921672
  39    -3.9629153475033e-16
  40    -0.091184243729331
  41     -0.29127913102473
  42    9.5148381021299e-15
  43     0.021683997331975
  44    -0.028540516894376
  45      -2.3663743785621
  46    -1.4562154470867e-15
  47     -0.11816457410105
  48    -0.017692129663333
  49    1.4270126884757e-15
  50     -0.57972563771813
  51      -1.1722174278679
  52     -0.24358551862895
  53    -3.0707399283859e-16
  54     0.031135236460075
  55     -0.33982437723412
  56    3.4322934515181e-15
  57    -0.033296667592816
  58     -0.23972063506491
  59       3.5595438608561
  60    -9.9163558784798e-16
  61      0.11862288167476
  62     0.040646940928942
  63    3.8662065410488e-15
  64       2.1380232040241
  65      0.40635575360974
  66       0.1817858540898
  67    3.3995801117013e-15
  68      0.20803346136972
  69     0.058048926290889
  70    4.2366019508505e-15
  71     0.014844609933063
  72     0.068195327814013
  73     -0.36615384648647
  74    -2.149246010973e-15
  75     0.091639200068276
  76      0.15894140505959
  77    -5.9007523680629e-15
  78     -0.59054132976565
  79        4.082165951307
  80     0.023364910965129
  81    -3.9091012073096e-16
  82     0.007867601770384
  83     -0.18668944425189
  84    -1.5468607350417e-15
  85    0.0020153954907349
  86     -0.12485843142424
  87      -2.5902103867774
  88    2.8166753354102e-16
  89      -0.1317604655318
  90      0.18596442480845
  91    5.7057330571217e-16
  92      0.47411939019299
  93       2.3474864996961
  94     -0.10786923014076
  95    -7.2106984624058e-15
  96      0.12353862097459
  97     -0.11309417102718
  98    -5.1110904641759e-15
  99    0.0084881250327686
 100       0.1803892805406
 101     -0.30856375416031
 102    1.7073944937953e-15
 103      0.11553989978371
 104     0.099821422608265
 105    -6.3072395834766e-16
 106      0.54404716311667
 107      0.49290708023218
 108      0.18191914490003
 109    4.3286465108913e-15
 110     -0.10877076600196
 111      0.22483272996617
 112    -4.1214152137548e-16
 113     0.016462620472518
 114      0.50618035634355
 115      -1.3419792969162
 116    2.0105798161572e-16
 117     -0.21394804017137
 118    -0.011372031970314
 119    -4.2169981928866e-15
 120      0.63212422362072
 121       0.5064428335175
 122     -0.13850253287427
 123    6.3674420846126e-15
 124      0.22249645343814
 125      0.33154297145835
 126    7.9144718308266e-15
 127    -0.0094455637264912
 128     -0.40349153016946
 129       3.2770099276553
 130    3.7710166054927e-15
 131     0.060118287464088
 132     0.015102923074905
 133    4.7077916283233e-15
 134      0.80991125926789
 135      -1.2471901613491
 136     0.051906877394811
 137    6.6484864343481e-15
 138      -0.1058546146228
 139        -0.14489181728
 140    -4.341847167346e-15
 141     -0.12471133487936
 142     -0.43557593359569
 143      0.16151082535369
 144     -0.53337574983989
 145    -0.011353990953429
 146     -0.26851820727756
 147      0.29612731661476
 148      0.44665186254853
 149    -0.099404453655882
 150     0.029698109632215
 151     -0.18568508643202
 152    -0.058497846333019
 153    -0.025629501168217
 154     -0.17980785077482
 155    -0.053642872117507
 156      0.42354161376545
 Sym= A
 Ene=     2.272267843
 Spin= Alpha
 Occup=    0.00000
   1    -0.043817125750673
   2     -0.41130252979985
   3       7.6471762136354
   4    -3.1835797943192e-15
   5    -0.020514143164043
   6    -0.019551002993798
   7    -3.1206146689271e-15
   8     -0.70710806135609
   9        3.284403233941
  10     0.044147096671972
  11    7.1162720516964e-15
  12       0.1947775080776
  13     -0.11851958779954
  14    1.4237556781129e-14
  15      0.01654967453369
  16      0.28807591324459
  17     -0.73239288838228
  18    1.3421788164835e-16
  19    -0.023183363320547
  20      0.13160656048063
  21    3.5209383251848e-16
  22      0.74932644944342
  23      -0.2956278391777
  24    -0.046778214034471
  25    9.296088461353e-15
  26      0.14231613367903
  27     -0.11835654313445
  28    -2.2448011410494e-15
  29    -7.6598890444182e-05
  30      -0.3448956888763
  31         1.08831734267
  32    1.0404945160597e-15
  33     0.085402853423823
  34    -0.052563029479083
  35    4.6266117761023e-15
  36     -0.92918719278741
  37       1.2842932091955
  38    -0.027385474642869
  39    4.0044946906286e-15
  40     0.053914242886693
  41     0.072628858561429
  42    -3.8645463224774e-15
  43     0.025591697273109
  44      0.32346959132837
  45      -1.7765659831082
  46    2.2631761861955e-15
  47      0.11697421196247
  48      0.16317763505698
  49    -7.9146008765742e-15
  50     -0.43315320608937
  51     -0.79938219352189
  52     -0.41083606853452
  53    -1.090278869654e-14
  54     -0.33181118997905
  55      0.13816242616365
  56    -6.1377519804176e-15
  57    0.0066669748312602
  58     -0.04584528248289
  59     -0.93096999242097
  60    3.4009321064128e-17
  61      0.10991452359343
  62    -0.073560249628469
  63    4.4931138618995e-15
  64      0.37770201606142
  65     -0.67667495608719
  66      0.24218924297693
  67    -4.2727313619673e-15
  68      0.15261218407454
  69       0.4763968241471
  70    6.8767976655836e-15
  71     0.036680027913544
  72    0.0047623605082969
  73      -5.1094732248613
  74    2.1573007241616e-16
  75     0.011107921177272
  76      0.17449783083342
  77    9.2329047745175e-16
  78      -1.6368993805768
  79      -3.8492744663369
  80     -0.06591609064086
  81    -2.0336704401838e-15
  82      0.10851870769349
  83    -0.043452248900574
  84    1.3815508464648e-14
  85    -0.022978457483797
  86     -0.32222414978833
  87       5.4302523231343
  88    5.538545681066e-16
  89    -0.085404449199344
  90     -0.13576824047491
  91    9.7034225637012e-15
  92       0.8843018132631
  93      -2.6973398955154
  94      0.10520321951066
  95    -1.1128519877929e-16
  96    -0.083962327428284
  97     0.026102778739297
  98    1.9354253089464e-14
  99    -0.00051768065483693
 100     -0.18263743134555
 101      -1.2860742404508
 102    -5.3559165174434e-16
 103     -0.15198233541637
 104     0.031303937186321
 105    -3.6374011471178e-15
 106     -0.97653072270167
 107      0.64291298619103
 108     -0.04319216861138
 109    3.836275915195e-16
 110     0.065900200223746
 111     -0.22574111694874
 112    1.8000372657136e-15
 113    -0.030464723310974
 114     -0.44498017988354
 115       1.1636478987453
 116    -1.0254773546191e-15
 117      0.05407655966875
 118    -0.021775259559838
 119    7.0757581998308e-15
 120     -0.71701144395259
 121     -0.93455333662877
 122     0.059561203730536
 123    -5.6033853917107e-15
 124     -0.21232783148539
 125     -0.19707927218259
 126    -1.0972173521294e-14
 127     0.014443882299096
 128      0.36384774880149
 129      -6.2369309379653
 130    -3.2144024107732e-15
 131    -0.052085733812273
 132     0.027601177389972
 133    -1.0566464293899e-14
 134     -0.41009211596458
 135       3.6466672808313
 136    -0.089091490974353
 137    -7.3488366305649e-15
 138     -0.16576246184592
 139    -0.068699067432224
 140    1.2382329992998e-14
 141     -0.18458739247287
 142      -0.1139211917029
 143      0.30221860584872
 144      0.79200799256132
 145      0.41575008068916
 146     -0.31356850468886
 147       0.5688657546172
 148     0.047803102070543
 149    -0.040686172912576
 150       0.1933755384058
 151    -0.054275524698652
 152     -0.17546823100223
 153      0.20690196834611
 154      0.33249273742931
 155     -0.15668369907957
 156    -0.090510760540779
 Sym= A
 Ene=     2.285419323
 Spin= Alpha
 Occup=    0.00000
   1    1.3361604682706e-15
   2    3.0853977979784e-15
   3    -2.4981198788128e-13
   4    -0.092538709970313
   5    3.8380061269125e-15
   6    -3.7949989581036e-16
   7     -0.20147845403822
   8    5.1546534477786e-15
   9    -8.6984523428208e-14
  10    -3.1183251461717e-15
  11      0.22026167376846
  12    -8.396505164592e-15
  13    -4.2057761876901e-15
  14      0.37167990057747
  15    -6.5996158454288e-16
  16    -9.9969251194441e-15
  17    3.3544718104968e-14
  18    -0.025270587652207
  19    -2.1294121165226e-15
  20    -5.8690710447544e-15
  21      0.11793420986692
  22    -3.6901687935878e-14
  23    2.2497798516392e-14
  24    9.031012560814e-15
  25      0.21938830711505
  26    -6.4868979472397e-15
  27    1.3820558250462e-14
  28      -0.2138971787443
  29    4.3954959599885e-16
  30    1.4396206154013e-15
  31    -3.1461437258443e-14
  32     0.012244884962931
  33    -1.535972238403e-15
  34    1.4775810573096e-15
  35     0.030349427481092
  36    3.1266939562844e-14
  37    -2.9409091008363e-14
  38    -5.9144758754603e-15
  39     0.077958551752603
  40    -5.3397732848948e-17
  41    -6.3137048325371e-15
  42    -0.095715445853197
  43    -7.7956787544543e-16
  44    -8.6244891923189e-15
  45    4.9427060241207e-14
  46    -0.0054284991812607
  47    -8.3964631897416e-15
  48    -1.4077093759357e-15
  49    -0.051113661349891
  50    2.6347435388202e-14
  51    9.8094873925265e-15
  52    2.7013733484246e-15
  53     -0.11443210346342
  54    1.3431992386715e-14
  55    -8.4576135222178e-15
  56     -0.11167327614244
  57    -8.3911634445832e-16
  58    4.2362210538955e-15
  59    7.6246164980018e-14
  60     0.021264217178515
  61    -9.2712175039429e-17
  62    1.6327508348494e-15
  63    -0.053557756961266
  64    -4.283979421661e-15
  65    3.061687290758e-14
  66    -9.2748138042483e-15
  67      -0.1114831301472
  68    5.0790121945548e-15
  69    -2.0154914462839e-14
  70    -0.047187110980943
  71    -1.8986634365254e-15
  72    -1.85571339029e-14
  73    2.3451878732056e-13
  74     0.064098559276734
  75    -4.5913998290223e-15
  76    -1.9503486533212e-15
  77      0.15700855863298
  78    6.2102410372236e-14
  79    1.9605587541526e-13
  80    1.0096553066296e-14
  81     -0.11192188530402
  82    -1.366743039463e-14
  83    -8.8131583884319e-15
  84      0.32877973070794
  85    -1.8243031772155e-16
  86    -2.0375508909899e-15
  87    -1.9192424724612e-13
  88     0.019194580675076
  89    4.5174558972654e-15
  90    1.1312372882217e-14
  91      0.24917007703864
  92    1.8190352479531e-14
  93    1.5539790341127e-13
  94    -8.1344235061951e-16
  95      0.16325733206644
  96    6.7538187599789e-15
  97    -7.3730312698826e-15
  98      0.59246089833986
  99    2.7926047397912e-17
 100    6.6546776061578e-16
 101    2.7117194519124e-14
 102    -0.036930975439867
 103    8.316056811318e-15
 104    2.7187914353521e-15
 105     -0.15053762751689
 106    6.2250320996106e-14
 107    -2.1804007795774e-14
 108    7.6938626243484e-16
 109     0.086775204285227
 110    -3.7979918745049e-15
 111    4.3998621049954e-15
 112     0.014779466173306
 113    1.1358820545006e-15
 114    1.3612947654272e-14
 115    -4.2497338730924e-14
 116    -0.015498409102643
 117    -3.3666259692723e-16
 118    4.6273116122272e-16
 119      0.22908171609835
 120    1.7769581480989e-14
 121    2.0549368927945e-14
 122    -8.8259968385038e-15
 123     -0.22674228779345
 124    1.4732288798372e-14
 125    8.2519065587325e-15
 126     -0.40869812226455
 127    2.818637605218e-16
 128    -6.5764878115614e-15
 129    1.123093685716e-13
 130     -0.12331343804871
 131    7.527134864662e-15
 132    -3.7418319758654e-15
 133     -0.23858038059126
 134    4.7818794247527e-14
 135    -1.2931606337474e-13
 136    3.176554068812e-15
 137     -0.27714708629262
 138    5.4208767180776e-15
 139    8.7814883022759e-16
 140      0.33413488736068
 141    1.8676479608713e-14
 142    4.1942085762379e-15
 143    4.8322620047376e-15
 144    -3.4255088962465e-14
 145    -1.1485858803218e-14
 146    7.9771250189397e-15
 147    -2.3499785152943e-14
 148    -7.4957188168527e-16
 149    5.2918494941157e-15
 150    3.924057386558e-15
 151    3.9064796646319e-15
 152    1.1373933518099e-14
 153    -5.3835183184044e-15
 154    -6.1450187908418e-15
 155    -5.3373224634316e-15
 156    1.4707899864598e-14
 Sym= A
 Ene=     2.290333541
 Spin= Alpha
 Occup=    0.00000
   1     0.024020689936847
   2       0.3672387258007
   3      -4.1187338856852
   4    -1.6809496219731e-15
   5    -0.073940541053017
   6      0.00667835665224
   7    -3.4798115163597e-15
   8     -0.11540223677542
   9      -3.6654132612698
  10    0.0089756721426476
  11    3.0459679019872e-15
  12    0.0035476101802522
  13      0.33178691794885
  14    1.1281889148998e-14
  15    0.0066954597993345
  16    -0.078630639101902
  17      -1.4994788004939
  18    3.6405084090646e-16
  19      0.14355103863664
  20     0.095433637690444
  21    6.944134240296e-16
  22       1.1816921262279
  23      0.10058399038287
  24    -0.068277963180366
  25    6.3260735147201e-15
  26    -0.019473241461946
  27     -0.23642667765041
  28    -1.5362518434282e-15
  29    -0.015402190967395
  30    -0.097369053475367
  31        1.178907173755
  32    2.3889671172025e-15
  33      0.10437542943409
  34     0.030631736794807
  35    1.1458721203377e-15
  36     -0.32905287502623
  37      0.61642282113727
  38      0.16566313940108
  39    3.7915582277206e-15
  40     0.098416392605419
  41     -0.10011849853554
  42    7.1243608326219e-17
  43    0.0038625785097454
  44     -0.17925229638408
  45     -0.71304916603956
  46    9.3374290881678e-16
  47     0.093325801104041
  48     -0.13137125442417
  49    -2.6195042541177e-15
  50     -0.46759965474136
  51    -0.062970253400344
  52      0.16228839665919
  53    -7.0001121075025e-15
  54     -0.28181609281541
  55     -0.10390500614478
  56    -2.0191957699049e-15
  57    0.0079602662977067
  58     -0.26162594610556
  59      0.83351512610531
  60    3.7662951821869e-16
  61    -0.054777254435052
  62       0.1519542545327
  63    2.4713734441237e-15
  64      0.93746642213149
  65    -0.023311401762918
  66      0.24592884994201
  67    -8.8080457371027e-16
  68     -0.14539882779505
  69      0.13378180519808
  70    3.6249435482425e-15
  71     0.022930244980983
  72       0.5078605677092
  73     0.053696933589918
  74    1.0140784526418e-15
  75      0.34529755880945
  76    -0.011209492915694
  77    8.8643711286513e-16
  78     -0.42446943547003
  79       1.5126058273598
  80     -0.17789435973939
  81    -4.3353892573389e-16
  82      0.28211035538034
  83      0.31653482749312
  84    1.1382263483201e-14
  85     0.037649356360222
  86      0.51913853583318
  87      -3.1943724639533
  88    1.8808483042228e-16
  89     0.027725942321376
  90     -0.10972801327102
  91    6.9050575231592e-15
  92      -1.0961163400557
  93      0.51596503775245
  94     -0.14396330744269
  95    -1.7400779052169e-16
  96     0.077646430902584
  97      0.27763217859673
  98    1.4642187815511e-14
  99    0.0046902715449286
 100      0.17822098490595
 101       1.9681227079194
 102    4.7778633133443e-17
 103     0.063467674349838
 104      -0.1024276008267
 105    -3.2988719374293e-15
 106      0.13869661760302
 107     -0.92787160921376
 108       0.1380283419994
 109    1.0335690945771e-16
 110     0.017872252530585
 111      0.26406903002551
 112    -2.528321161342e-16
 113     0.013867243752677
 114      0.45960533888386
 115      0.47129109629631
 116    -5.9668797579848e-16
 117     -0.19181238506903
 118     -0.14323093776111
 119    4.501881324798e-15
 120      0.17120178982843
 121      0.22627737692853
 122     0.091238570567535
 123    -4.0193106025557e-16
 124    -0.073756579842642
 125      0.15788789554395
 126    -8.6323209567705e-15
 127    -0.00026508258147115
 128    -0.037586967603885
 129       4.5725403794557
 130    -9.9034864531188e-16
 131     -0.17249808700448
 132     0.048108742104158
 133    -6.5255594800508e-15
 134     -0.17473663338012
 135      -4.1902707132761
 136    -0.0065336804561311
 137     -4.7653530923e-15
 138    -0.021885106568452
 139      0.26540973622219
 140    1.1329654388793e-14
 141     -0.34636118698881
 142     -0.27273325029839
 143    -0.084753295651971
 144      0.43046536117283
 145     0.085061814962206
 146    -0.070255968003517
 147      0.31765719273778
 148       0.1932123845618
 149     0.048928207887902
 150     -0.32787574393802
 151    -0.019995641623655
 152      0.13505809587108
 153    -0.041457241782124
 154     -0.16100162903106
 155     0.054734968872401
 156     -0.18187501960419
 Sym= A
 Ene=     2.336234724
 Spin= Alpha
 Occup=    0.00000
   1    0.0032728310413269
   2       0.1299468093898
   3      -4.0882565852548
   4    -1.9861494698818e-15
   5     0.072773802235419
   6      0.11067081190331
   7    -9.0524764185658e-17
   8       1.3981450750476
   9      -5.2003800477802
  10      0.12027197998459
  11    6.4954897986196e-15
  12      0.12934396257637
  13     -0.07171795547681
  14    6.4519963832956e-15
  15     0.007474186722996
  16      0.23782351388601
  17       -2.482078263997
  18    1.1565802693317e-15
  19     0.050612697892868
  20     -0.24452737590583
  21    1.7649837049892e-15
  22       1.3892354904344
  23     -0.77055203850083
  24     -0.35633640020192
  25    1.4742783033377e-15
  26    -0.071374984410374
  27     -0.17481051284379
  28    -5.4504619694769e-15
  29    -0.0076007853829437
  30      0.49562040970998
  31      0.64783654636062
  32    -4.3895010605508e-15
  33     0.024237459479894
  34      0.15132997197068
  35    1.924289895914e-15
  36     -0.36883688677356
  37      -0.4766613818472
  38    -0.049859684696258
  39    1.5589412240847e-16
  40     -0.22805754504363
  41      0.31134445834546
  42    -2.9210347259614e-16
  43     0.015125592393158
  44      0.46566827684558
  45     -0.91704024031746
  46    1.2429643655103e-15
  47      0.13460902976464
  48     0.056299486867138
  49    -4.4900283799614e-15
  50     -0.62016124179626
  51     -0.25796678105008
  52    0.00022580481760821
  53    -8.2238269907601e-15
  54      0.19917948116222
  55      0.30791760682435
  56    3.3610579010915e-15
  57     0.010511700042089
  58     0.092818755430514
  59     -0.70782077016859
  60    2.0834151074304e-15
  61    -0.019365058292003
  62     -0.22763930384059
  63    7.0581917297908e-15
  64    -0.031949495867334
  65     -0.13897047729756
  66     -0.13545033003643
  67    6.1544306514812e-15
  68    -0.024108781719849
  69      0.17017748051463
  70    1.2354393317967e-14
  71       0.0167264727901
  72      0.27865917506804
  73      -1.2756960353649
  74    -2.2225336911687e-15
  75    -0.028864374529616
  76     0.028887719707434
  77    -4.5924589022703e-15
  78    -0.041389620171761
  79      -1.5838796035026
  80    -0.076046820512446
  81    8.8905544471026e-15
  82      0.22915117004394
  83    -0.0090133924324194
  84    1.1823605028729e-14
  85    0.0037691570162031
  86    -0.020915552456364
  87     -0.11140699888154
  88    -3.4234334447333e-15
  89     -0.23278790905412
  90     0.070067867337578
  91    6.1082428769953e-15
  92      -1.4513739809119
  93      -1.5667649560783
  94    -0.0035270439485075
  95    -8.1491520619991e-15
  96     -0.24692433751327
  97    -0.042887462622807
  98    7.9454694334778e-15
  99     0.017109903666814
 100      0.54172232045678
 101      -0.4003824407803
 102    1.5463331988969e-15
 103     0.046950462877629
 104     -0.11316822360613
 105    1.777405956861e-15
 106      -1.0167220047057
 107      0.90096179291398
 108    0.0049149342403796
 109    -1.2894490758732e-14
 110    -0.043461171021627
 111      0.21059918780391
 112    -6.7216344253597e-17
 113    0.0035451742417755
 114      0.14037966693492
 115       2.0923804391584
 116    -7.3915127354614e-16
 117     -0.14198808199616
 118     0.055251252592633
 119    2.0667641503328e-15
 120      -0.2612326735575
 121     -0.66779241319645
 122      0.16271275451383
 123    3.0619307469272e-15
 124    -0.024967169538439
 125      0.19228672206047
 126    -5.0469137867846e-15
 127    -0.053768790679112
 128       -0.756019537191
 129       8.0781791805935
 130    -3.1034311521634e-15
 131     0.031161075067175
 132      0.15441237287695
 133    -7.2971013995693e-15
 134      -2.9098497427329
 135      -3.9058629641158
 136     0.046815453270823
 137    -3.8906875358057e-15
 138     0.025764064666789
 139     -0.25053549986355
 140    1.4156903356906e-14
 141     -0.42290473724025
 142     -0.20707740725062
 143     -0.34070009757893
 144     -0.19773962123429
 145     -0.10347932445465
 146      -0.1126353738181
 147     0.097477392676043
 148     0.026389860134685
 149     -0.27454552767022
 150     -0.29140654986047
 151     -0.17008880370926
 152      -0.4057154762694
 153    -0.062277111755597
 154     0.084182114033524
 155      0.26860562743884
 156     -0.12272017043803
 Sym= A
 Ene=     2.370579419
 Spin= Alpha
 Occup=    0.00000
   1    -0.028587910231889
   2     -0.36167711417813
   3       7.6434443684146
   4    -1.1005228161216e-15
   5     -0.10538163180703
   6     0.097653467947914
   7    -3.5664828747746e-15
   8     -0.28597003963912
   9       4.9599810637021
  10     0.080121903779429
  11    -1.8492556793476e-15
  12      0.17224097695858
  13     0.025303332055847
  14    6.5413171524585e-15
  15    -0.0023753272983267
  16      0.35135852803595
  17       1.0345110696819
  18    -2.267021806869e-15
  19     -0.17186240657267
  20    -0.0046173482201083
  21    3.6264222451942e-15
  22     -0.31838036767766
  23      0.25087488879926
  24     -0.10084986314241
  25    1.2158566989498e-15
  26     -0.24312496375334
  27    -0.027325874594006
  28    -2.6999019394041e-15
  29    -0.016772369089855
  30    -0.052444580331841
  31      0.30162594380932
  32    8.5612912505173e-16
  33      0.13218017025145
  34      0.03794928482615
  35    -5.3776436426262e-15
  36     -0.19771067343997
  37     -0.33517648810596
  38     -0.12825132514647
  39    -1.1233315553579e-15
  40     -0.22594418997208
  41     -0.18258405688819
  42    1.0660150682881e-14
  43    -0.0084815230788352
  44     -0.45279088644173
  45      0.39101262616894
  46    -2.3388368242357e-15
  47     -0.11287874745084
  48     -0.26307611941196
  49    4.4784343389539e-15
  50    -0.085935632470443
  51      0.26650504579757
  52      0.27970034949398
  53    -2.7055592477442e-16
  54      0.24295735544499
  55      -0.3342918137451
  56    8.7753344061085e-15
  57    -0.012802504198749
  58     -0.14636291076424
  59     -0.24272098630148
  60    1.6065578014478e-15
  61    -0.028509760580723
  62    -0.037032897109958
  63    5.2605433648436e-16
  64      0.13266642392933
  65      0.11356474047928
  66     0.095175233666776
  67    4.8347829486003e-15
  68      -0.2295021822257
  69    -0.032217230593289
  70    2.9664216073618e-15
  71     0.016257756338137
  72      0.25879908749372
  73      -3.2335059453314
  74    -7.3291758395032e-16
  75    -0.046513840765743
  76     -0.11183046625393
  77    6.8268928103671e-16
  78     -0.11042953504604
  79      -1.6985451424253
  80     -0.24224263885269
  81    4.7782339402749e-15
  82      0.15078903370827
  83     0.039927167178126
  84    9.3493183925607e-15
  85    0.0039420088691667
  86      0.10947332674326
  87       2.3414131715304
  88    -1.8498084201986e-15
  89    -0.090466896341822
  90     -0.19586270818754
  91    3.4623126655057e-15
  92     -0.29763581978364
  93      -1.7551471200206
  94     -0.05108915354289
  95    -3.5373602594149e-15
  96    -0.091589639708396
  97     0.026216175264612
  98    7.8216037072321e-15
  99    -0.0089040442549122
 100     -0.32033241475224
 101      -1.5589205082797
 102    2.0484113452028e-16
 103     -0.36078270473128
 104     0.065640312194358
 105    -7.8027601758328e-16
 106     -0.75797935679164
 107      0.89817927850358
 108     -0.05190896854246
 109    -5.2995358435079e-15
 110    -0.020278632362535
 111     -0.26548419186438
 112    -2.883985336982e-15
 113    -0.030939859741939
 114     -0.39152434320325
 115      -1.2742377691775
 116    -8.6162435596691e-16
 117     0.088147412694287
 118      0.02765298878314
 119    1.1963426427532e-15
 120      0.20594814996728
 121      0.16127410416355
 122         0.05403074113
 123    6.5687415546107e-15
 124     -0.30319326001983
 125     -0.33154640484578
 126    -5.666031984633e-15
 127    -0.005119834865813
 128     0.046298946466595
 129       -4.558629546126
 130    3.6708775737822e-16
 131    -0.022136134102102
 132    -0.038998523008988
 133    -1.8915914588499e-15
 134     -0.39621244847686
 135       6.7950698814789
 136    -0.079005685042953
 137    -1.4095951362416e-15
 138     -0.25422950944829
 139     -0.23722806265969
 140    1.1732003439416e-14
 141    -0.052214282170534
 142     0.099258382139572
 143     -0.17534757513245
 144     -0.35915496615133
 145     -0.35523499147262
 146      0.12059993265036
 147      0.06712964955636
 148     0.044274302425992
 149     -0.14237514753687
 150    0.0086316837863672
 151     -0.11773499948009
 152     -0.20386598854022
 153      0.16190280021445
 154    -0.0060167889576111
 155      0.13134059191017
 156       0.1054454642099
 Sym= A
 Ene=     2.412710927
 Spin= Alpha
 Occup=    0.00000
   1    1.3852744842604e-16
   2    6.2690210768436e-15
   3    -5.260401313081e-14
   4     0.087647655125513
   5    -5.3820417484669e-16
   6    1.9828835638273e-16
   7       0.1337348587203
   8     3.31005588769e-14
   9    -1.1275041018205e-13
  10    -5.3472132251429e-15
  11     -0.30736938592688
  12    2.2352155780111e-15
  13    1.1511700779517e-15
  14      0.13840955301155
  15    2.8777710856351e-16
  16    1.1587754295509e-14
  17    -7.144817595556e-14
  18    -0.046407689906379
  19    -1.4917205817537e-15
  20    -5.7698194169267e-15
  21     -0.22997051346448
  22    3.0284887069163e-14
  23    -2.8354820347204e-14
  24    -8.0138375389091e-15
  25    -0.082653158079025
  26    6.9995591398105e-15
  27    -1.8745009206054e-15
  28      0.47515522114108
  29    -1.2982949668914e-16
  30    1.4862329131645e-15
  31    1.7043415552634e-14
  32    -0.0026432001287164
  33    3.9126339518644e-15
  34    -6.0355519157136e-15
  35     0.090847825516933
  36    -9.6895484588175e-15
  37    -1.4536812265464e-14
  38    3.5478359523181e-15
  39      0.29982123462474
  40    -7.9152794931395e-15
  41    1.5236245751518e-15
  42      0.13592879844589
  43    1.1136442855779e-16
  44    1.2518879532398e-14
  45    -9.0260375085674e-15
  46     0.017610281485477
  47    6.9059099248303e-16
  48    5.4052840150034e-15
  49      0.15397175556642
  50    -7.9692304913818e-15
  51    7.4236792274174e-15
  52    -6.2732577507419e-15
  53      0.36633698588912
  54    1.0592877653362e-14
  55    4.035760443217e-15
  56    -0.005958035303568
  57    8.1220461099907e-16
  58    1.6593964345976e-14
  59    -7.3835965535449e-14
  60    -0.039231321044993
  61    3.9787314416801e-15
  62    -7.6659563187871e-15
  63     -0.19848623144603
  64    -2.5430505307655e-14
  65    -1.0785978598759e-14
  66    -6.9060317926746e-15
  67     0.071674525943483
  68    2.8302117443919e-15
  69    1.0784880912878e-14
  70     -0.43739072044545
  71    6.3706146946765e-16
  72    9.8313322554819e-15
  73    -4.7670122538958e-15
  74     0.050258500478796
  75    4.071097844988e-16
  76    3.1407665353687e-15
  77    -0.0061478572320759
  78    -2.3602262385204e-14
  79    -6.5976737262405e-14
  80    -5.8783554691268e-15
  81     -0.24463086527192
  82    4.6979045105096e-15
  83    4.819181449434e-15
  84     -0.11264733042014
  85    3.8034651943399e-16
  86    1.0015097061657e-14
  87    2.5994139719231e-14
  88     0.082594059085548
  89    3.0323227710165e-16
  90    -1.1355143905516e-15
  91      0.16817449469776
  92    -1.1646393105736e-14
  93    -1.7961416081392e-14
  94    -4.1110904251331e-15
  95      0.11192291056154
  96    -3.770609909992e-15
  97    4.1665724734203e-15
  98      0.29345893033462
  99    8.9258517606359e-16
 100    9.8834311839885e-15
 101    -3.3738673528936e-14
 102    -0.043676019352848
 103    -2.2015721122697e-15
 104    -2.2964768041065e-15
 105       -0.237115715122
 106    -1.713734484641e-14
 107    2.6046638856761e-14
 108    -5.2896250276499e-15
 109      0.54274278507932
 110    -3.9769434498765e-15
 111    4.3771019566568e-15
 112      -0.1130639113568
 113    -3.0926464320752e-16
 114    -4.8277150149593e-16
 115    6.3087388144711e-14
 116    -0.016954421608007
 117    -3.4794744506578e-15
 118    -1.7157689619245e-16
 119      0.08242446632228
 120    -1.7174158370481e-14
 121    -2.3986520191932e-14
 122    3.011840954915e-15
 123     0.041997860833204
 124    -3.0575675725036e-15
 125    -2.9767304892214e-15
 126     -0.10177785213334
 127    -3.5676947216241e-16
 128    -5.8096172237974e-16
 129    1.2537192650393e-13
 130       0.1134199028941
 131    -1.9066970028656e-15
 132    -2.6576662657361e-15
 133    -0.030037943038454
 134    -5.7104544052394e-14
 135    -7.8657436124028e-14
 136    -1.9761675752831e-15
 137      0.21442923544916
 138    -4.8412485022999e-16
 139    5.1501208232417e-16
 140     -0.08508451968068
 141    -6.3184984600955e-15
 142    -1.2079275092275e-15
 143    -2.1243286570898e-14
 144    5.9767631469488e-16
 145    4.2841264981281e-17
 146    1.9717424061675e-15
 147    5.3399277820579e-15
 148    -4.859522465873e-15
 149    -6.3291245575972e-16
 150    -4.6258005316248e-15
 151    -1.8864138057044e-15
 152    -8.522609166592e-15
 153     4.59341984373e-16
 154    4.6263945204565e-15
 155    1.5580015893238e-14
 156    -1.0542078515665e-14
 Sym= A
 Ene=     2.440965595
 Spin= Alpha
 Occup=    0.00000
   1    -0.025640940110695
   2      0.24793106243957
   3       3.6301258549178
   4    -7.6860729257347e-16
   5      -0.1443541528431
   6     -0.19849439375905
   7    -2.3825518793584e-15
   8     -0.55992598530825
   9       1.0679701815376
  10     -0.11689583535642
  11    1.4050330384371e-15
  12      0.12421735044867
  13     0.057140969621369
  14    -2.9465981626894e-15
  15    -0.0053054601161797
  16    -0.086037956062989
  17     0.087400035686296
  18    2.8189448177735e-15
  19      0.06861903612592
  20      0.13340142576798
  21    7.0430839965908e-15
  22      0.17482605969689
  23     -0.34439051046462
  24    -0.078640154040733
  25    -3.6924061966733e-15
  26      0.44208658343324
  27     -0.25526093923996
  28    -1.0457640281377e-14
  29    -0.012253574475285
  30     -0.44148482615075
  31      0.94440406177623
  32    4.1191545254481e-15
  33      0.18937777161276
  34     -0.30283107279898
  35    -1.2184642564508e-14
  36     -0.34373051633491
  37      0.10949404970208
  38       0.3810330067839
  39    -1.3103909856546e-14
  40    0.0062125846045598
  41     -0.11982131612914
  42    5.812469182946e-15
  43    -0.023136852287203
  44      0.20984597037707
  45     -0.65314968457493
  46    -8.4638467050873e-16
  47     0.026853880290713
  48      0.10876895873938
  49    7.0844852987384e-15
  50     -0.48390917401084
  51     -0.24581755913894
  52     0.021502450178488
  53    2.9019169839075e-15
  54      0.16577377819571
  55     -0.27475372383896
  56    1.0383824524853e-14
  57    -0.022051048817594
  58     -0.20178657660536
  59       2.1396914104916
  60    9.3314013755235e-16
  61    -0.047375396313363
  62     0.049210390495258
  63    -1.1888190920279e-15
  64       1.1561215910039
  65      0.93078482923517
  66     -0.11279079535932
  67    5.1153412640393e-15
  68      0.44122683961665
  69     -0.18935158683881
  70    1.3466976883189e-15
  71     0.015456517639384
  72     0.023619733391707
  73     -0.93728417648012
  74    -7.0140941964862e-16
  75    -0.044696422593674
  76     0.050762134691924
  77    -7.7740743233571e-17
  78     -0.19085151308349
  79        2.665266005228
  80      0.15782187818441
  81    5.5765170407979e-15
  82     0.036438427173932
  83       0.2140075563491
  84    -1.3837912123151e-16
  85    -0.014025586479868
  86     -0.38956620761129
  87    -0.078326743107101
  88    -2.0688578552437e-15
  89     -0.10730069292468
  90      0.10631864324497
  91    1.2216794418692e-15
  92        1.040742693829
  93       1.0654485225744
  94     0.075037570430966
  95    -3.2188955972631e-16
  96     -0.16598359805559
  97     -0.13496850199156
  98    2.9526058666912e-15
  99    -0.0069690510469743
 100    -0.095290667710626
 101      -1.0905982919526
 102    -1.4260107364047e-16
 103    -0.00043097798935432
 104     0.099639174239776
 105    -3.7191802479279e-16
 106      0.31146116065345
 107      0.68107773722071
 108     0.011947763812573
 109    -5.1552931513376e-15
 110    -0.032357491492156
 111    -0.092455709731012
 112    -3.9246746155442e-15
 113     0.012621505157532
 114      0.14414462124659
 115      -2.5868168261709
 116       3.390964586e-16
 117    -0.010108102660426
 118    -0.0033647865200641
 119    1.7412025333287e-15
 120      0.86313754647017
 121      0.93527860286532
 122    -0.088158096382819
 123    1.271549383267e-15
 124    -0.046659849599294
 125      0.12946987053505
 126    -6.4251005690221e-15
 127    0.0047705687080694
 128      0.11938720849933
 129     -0.92907576246732
 130    -1.1179253549379e-15
 131    -0.00024643074059127
 132     -0.13462435587555
 133    -1.1863620980032e-15
 134        1.224732226154
 135       3.5256954455477
 136    -0.054473353585217
 137    -3.3971581577963e-15
 138     -0.18694667515293
 139     -0.18398380641561
 140    5.4282227945705e-15
 141     -0.23669415524222
 142    0.0097376460793311
 143     -0.48415063534589
 144     0.056041009126966
 145     -0.15283295862565
 146    -0.028900023896681
 147      -0.1063117830889
 148      0.28325209147155
 149     0.019933187480803
 150      0.12765596321996
 151    -0.061180242592858
 152    -0.046426664700515
 153     0.080150787089661
 154      -0.2909875273944
 155      0.36464928263242
 156     -0.21952956185531
 Sym= A
 Ene=     2.459961093
 Spin= Alpha
 Occup=    0.00000
   1    -5.9067750638434e-15
   2    -4.3081074618398e-14
   3    1.2863151655295e-12
   4     0.078222842298794
   5    -4.8369425960645e-15
   6    6.6610622004822e-16
   7     -0.02081291450649
   8    -2.0081599919076e-13
   9    1.2304947671461e-12
  10    5.7463368027837e-14
  11     -0.26349505554104
  12    7.6715482992707e-16
  13    2.942431002786e-15
  14       0.2725248562821
  15    -2.6695096189744e-15
  16    -6.4926900334542e-14
  17    6.0342127750321e-13
  18    -0.054842515983642
  19    1.8950014194089e-14
  20    2.6524886366453e-14
  21    -0.069276699537528
  22    -2.7329145289133e-13
  23    1.3143457571116e-13
  24    -1.5606043342783e-15
  25     -0.22662947186432
  26    -3.7407096514379e-14
  27    -4.4598326500299e-14
  28      0.19911011711308
  29    -7.8973387050494e-16
  30    2.9203939044067e-14
  31    -1.4792302772312e-13
  32    -0.039776719402526
  33    -3.160247149087e-14
  34    1.6429552030679e-14
  35    -0.0010154726889755
  36    4.8125540912255e-14
  37    -2.0674798435736e-14
  38    7.1006693144766e-15
  39     0.093817479028613
  40    2.9418937649606e-14
  41    1.1465845886076e-14
  42      0.19775257542297
  43    -1.2235613333346e-17
  44    -1.0825279722915e-14
  45    -7.9782550661966e-15
  46     0.014944638865871
  47    1.0937495204682e-14
  48    -8.2697190712558e-15
  49    -0.051037893086969
  50    4.0932281912847e-15
  51    -1.952036551804e-15
  52    3.2922808493517e-14
  53      -0.2500576099751
  54    -5.7136976718742e-14
  55    1.9188104862999e-14
  56      0.26773434294993
  57    -3.0744173260306e-15
  58    -9.4696142592921e-14
  59    1.921710354889e-13
  60     0.065297349978206
  61    -3.7125807833241e-14
  62    2.4004639836398e-14
  63      0.15718176489173
  64    1.060187748961e-13
  65    3.0000253423065e-15
  66    1.1906857130443e-14
  67     0.052344938081369
  68    -1.0743268301818e-14
  69    -5.2629120140422e-14
  70       0.3007234673562
  71    -4.4738385261283e-15
  72    -3.2716386929288e-14
  73    -3.2979576302762e-13
  74    -0.049406630800202
  75    2.7983142325402e-15
  76    -3.5030724751954e-14
  77    -0.073596344611082
  78    -4.230514028607e-14
  79    -1.9130521053818e-14
  80    4.6208839825812e-14
  81      0.21713574376461
  82    -1.3749282697722e-14
  83    -1.0455255481618e-14
  84      0.32968589474824
  85    -6.0390882892508e-15
  86    -1.1099902444302e-13
  87    4.677918911892e-13
  88    -0.073953072819911
  89    -2.149855364384e-14
  90    -9.9259946729745e-15
  91      0.09338683541998
  92    2.3833306460777e-13
  93    -1.1712232816835e-13
  94    4.5604297712963e-14
  95     -0.20230781511194
  96    -4.6972498982174e-17
  97    -3.8959619647223e-14
  98      0.15103855016279
  99    -6.2771251331215e-15
 100    -6.0818429352883e-14
 101    -1.9784935800665e-13
 102    0.0092685045577998
 103    1.2726135321865e-14
 104    3.1871845610515e-14
 105    -0.038883794809029
 106    -7.1789399958911e-14
 107    8.2413464047832e-14
 108    5.2527292052681e-14
 109     -0.15460316758916
 110    3.8282287336237e-14
 111    -4.8185527211259e-14
 112     -0.26423030028107
 113    -2.124175318823e-16
 114    -3.1737474040367e-14
 115    -5.715507237909e-13
 116    -0.047717145084022
 117    2.9177516920964e-14
 118    2.3895063359135e-14
 119    -0.053404105933598
 120    1.576079564026e-13
 121    2.0701821670452e-13
 122    2.3554605350349e-15
 123      0.53915149534686
 124    8.7716072754418e-15
 125    2.0079523845691e-14
 126    -0.058616509273966
 127    1.8070774840612e-16
 128    -2.3509230606701e-14
 129    -1.1668956605029e-12
 130      0.13545613521116
 131    1.5535313432927e-14
 132    2.1932361783333e-14
 133      0.04133962879407
 134    3.1935362307857e-13
 135    1.3727053019618e-12
 136    1.8438544642752e-14
 137      0.26054473979969
 138    5.0069989211343e-15
 139    -3.0859860879334e-14
 140      0.43830096893451
 141    -1.6105390454125e-14
 142    5.9075427242491e-14
 143    4.2733887230363e-14
 144    5.9021797223246e-15
 145    2.0571044700152e-14
 146    -3.4349163534228e-15
 147    -2.8611307480228e-14
 148    2.7248800248483e-14
 149    5.3900504681931e-15
 150    5.4342338228784e-14
 151    -1.659070013502e-14
 152    -1.0914528242001e-14
 153    -6.1451175941977e-15
 154    -3.8412960927792e-14
 155    -3.0336679522379e-14
 156    1.4587086570912e-14
 Sym= A
 Ene=     2.472122437
 Spin= Alpha
 Occup=    0.00000
   1     -0.03306103533924
   2     -0.21902343464646
   3       7.4307589688357
   4    -1.2185019649886e-14
   5    -0.031763779999669
   6     0.029872215570869
   7    8.447159841727e-15
   8     -0.91368800000159
   9       5.8191366679277
  10       0.3360670200476
  11    3.8130471900884e-14
  12    0.0098056915324931
  13     0.078030512926689
  14    -2.4892761283475e-14
  15    -0.0052916099391863
  16     -0.18308795103874
  17        2.222224151724
  18    7.702042445398e-15
  19     0.094932656701794
  20     0.088712229310023
  21    -6.8079754171169e-15
  22     -0.90741584970736
  23      0.56914136622441
  24     -0.11018852183298
  25    4.6062695342055e-14
  26     -0.25636015727496
  27      -0.2298628644513
  28    -3.9568254426581e-15
  29    -0.0064265402035361
  30      0.20743121068532
  31     -0.29454536402936
  32    5.3739675872575e-15
  33     -0.10849456276835
  34      0.13985987389507
  35    2.0822072200193e-14
  36     0.048474234389537
  37      0.14532679804449
  38     0.016099669256441
  39    1.7120646293713e-14
  40     0.093294595842003
  41      0.14640189296587
  42    -4.0818595851218e-14
  43    0.00084516446939001
  44    0.00083314246298303
  45     -0.53759134645348
  46    -1.3295637003981e-15
  47      0.12015750540017
  48    -0.064270753239635
  49    -2.3277514271746e-15
  50     -0.25000421352221
  51     -0.33439279131427
  52      0.19698792850165
  53    3.285167284876e-14
  54     -0.29059723014411
  55     0.073825371571129
  56    -5.8175904757308e-14
  57    -0.027268672394075
  58     -0.66823025778749
  59       1.9957424303982
  60    -1.2063590299432e-14
  61     -0.22653841340384
  62      0.10134918037341
  63    -2.328524905967e-14
  64       1.1194637681305
  65      0.27308094621209
  66      0.15998785443118
  67    -1.2998783333889e-14
  68    -0.011038711540642
  69     -0.31253700528245
  70    -5.324206039881e-14
  71    -0.021370891853574
  72     -0.15487218985732
  73      -2.4714291607347
  74    8.2999585796429e-15
  75     0.075554074536206
  76     -0.17170548722543
  77    1.3820245729499e-14
  78    -0.074890771088477
  79      0.48457657647776
  80      0.24589107041245
  81    -4.9852565651811e-14
  82     0.032913108763656
  83    -0.060024735570756
  84    -3.8428324742548e-14
  85    -0.035585336015146
  86     -0.71790310811785
  87       2.3689531164088
  88    1.779717183327e-14
  89     -0.17936951919334
  90    -0.089815634250791
  91    -1.6107316890296e-14
  92       1.2681480312021
  93     -0.87210559340893
  94      0.25817072561075
  95    2.7102128164927e-14
  96    -0.011853868171729
  97     -0.23399567092528
  98    -2.7184527226251e-14
  99    -0.040990745989161
 100     -0.41230752618213
 101     -0.76264366513403
 102    7.3392264462433e-16
 103     0.047154264048049
 104      0.18630885465328
 105    1.1956876181739e-14
 106     -0.50602377052072
 107        0.391212774373
 108      0.38816342430015
 109    3.1370082878921e-14
 110        0.264986283451
 111     -0.31234455449753
 112     6.38413229464e-14
 113    0.0021631318146746
 114     -0.10729094419173
 115      -3.4906981917115
 116    5.6165859129753e-15
 117      0.13548664763258
 118      0.10983609059837
 119    1.3747262183164e-15
 120       1.0054751152085
 121       1.2921557063926
 122    -0.029526214727752
 123    -8.6187926595691e-14
 124    0.0040634565086177
 125      0.14174692137034
 126    3.4464736572473e-14
 127    0.0015210334220738
 128      -0.1081999840146
 129      -5.6667485207449
 130    -1.936712453525e-14
 131     0.095175141437679
 132      0.11239573027449
 133    -7.5574981776379e-15
 134       1.8271820600214
 135        7.662689035263
 136     0.090586005832074
 137    -3.5100799520153e-14
 138    -0.028564000449123
 139     -0.17067029259418
 140    -7.3886151804729e-14
 141     -0.16474963597283
 142        0.211569186447
 143      0.21813702975042
 144      0.15191583616193
 145      0.05487918734516
 146     -0.11940449115211
 147     -0.10446018491873
 148      0.26247719629668
 149     0.011944177140963
 150      0.29312259596212
 151     -0.14582173819522
 152    -0.073542069674974
 153     0.014280121153602
 154      -0.2655174032158
 155     -0.14737154695594
 156     0.044181064796144
 Sym= A
 Ene=     2.491582196
 Spin= Alpha
 Occup=    0.00000
   1    6.2339853615811e-16
   2    5.2316955541958e-15
   3    -2.7671094361777e-13
   4    -0.0074085513210674
   5    -1.0811848911144e-14
   6    -3.1066324836238e-15
   7    -0.072498133178378
   8    -1.2235213032666e-14
   9    -6.3730963718271e-14
  10    -1.1831276579263e-14
  11     0.019955129007177
  12    1.854055549522e-15
  13    -7.8335201157173e-15
  14      0.37219028014548
  15    -1.8608346750515e-15
  16    -2.4807950573893e-14
  17    8.1913802009997e-14
  18    -0.028569719695991
  19    1.7622210233341e-15
  20    4.7363376343401e-15
  21      -0.1488010871989
  22    -4.9271860160693e-14
  23    2.4695407826062e-14
  24    1.8124576852628e-14
  25      0.12895384735216
  26    1.0259028423132e-14
  27    -5.3134597570555e-15
  28      0.25083829445677
  29    -3.6150434860068e-16
  30    -1.464583117501e-14
  31    -2.9770466163691e-14
  32    0.0094594400517045
  33    -5.0836758639268e-16
  34    -1.7089821585609e-14
  35       0.2490292126504
  36    2.7572097469051e-14
  37    -3.3668153094618e-14
  38    6.243683797063e-15
  39      0.40978072399713
  40    8.2754776745226e-15
  41    -2.4260253140073e-14
  42     -0.20482712770642
  43    -3.2034826850659e-16
  44    -2.4204261652036e-16
  45    7.7249509384538e-14
  46    -0.015586525018046
  47    -1.7510562388938e-14
  48    9.2474035293674e-15
  49     -0.19454406146734
  50    3.4884928673558e-14
  51    4.280644693082e-14
  52    -5.9345567779506e-15
  53     -0.25597608087325
  54    1.9325960665907e-14
  55    4.8338372321775e-16
  56     -0.20421537140385
  57    2.6324464135719e-15
  58    4.7952192080296e-14
  59    -2.2865257387672e-13
  60    0.0047691161857257
  61    9.9815587475179e-15
  62    -6.2638629004898e-15
  63     0.033806566162302
  64    -1.1226666608603e-13
  65    -4.6729318273895e-14
  66    -2.9392987717407e-14
  67     -0.19536184865918
  68    2.0169660356492e-15
  69    1.3489591341298e-14
  70     0.002436672099235
  71    2.125547009895e-15
  72    3.1073034460539e-14
  73     5.01883548002e-14
  74      0.01213270794688
  75    -8.2600934153037e-15
  76    8.0878307042982e-15
  77      0.13898704568673
  78    -6.8480439510509e-14
  79    -1.7017994121507e-13
  80    -1.1628133494146e-14
  81     -0.26122871005871
  82    -4.0468839718053e-15
  83    1.9152038772748e-14
  84      0.35217207674048
  85    2.2817314976258e-15
  86    4.0232923689652e-14
  87    -2.4136480421854e-14
  88      0.10125699717428
  89    4.4495987520725e-15
  90    7.1099800804004e-15
  91     -0.13133534578802
  92    -7.807506984834e-14
  93    1.0915420178147e-14
  94    -1.6831940952073e-14
  95     -0.10101572938929
  96    -3.6842526993582e-15
  97    9.3969486478667e-15
  98     -0.18329111049312
  99    1.9641845116294e-15
 100    1.7167472387565e-14
 101    -2.8389721361389e-14
 102     0.060782888683344
 103    -1.0287010025137e-14
 104    -3.7834809099328e-15
 105      0.20748097368968
 106    1.2308358481979e-14
 107    1.6500867640641e-14
 108    -1.7617902973404e-14
 109      -0.0452212257191
 110    -2.4943665062006e-14
 111    1.3519109435442e-14
 112      0.49482291730026
 113    -1.3029935222328e-15
 114    -2.9027858856615e-15
 115    1.7622006324151e-13
 116    -0.042775252682657
 117    -6.7310417514509e-15
 118    -1.5678898652946e-15
 119     -0.21001356656878
 120    -5.0784860318109e-14
 121    -7.5902837351976e-14
 122    7.6982311162789e-15
 123     0.015897418818607
 124    -5.986219812044e-16
 125    -1.553410057791e-14
 126      0.60525509646734
 127    -2.2568516973337e-15
 128    -2.9264599539254e-14
 129    1.9772229420868e-13
 130     0.025818992932942
 131    -1.0584881130421e-15
 132    -6.0399501028705e-15
 133     0.072209376827206
 134    -1.4079687784614e-13
 135    -2.607588614887e-13
 136    1.0960888453169e-15
 137     0.071118474255891
 138    -4.6824617672479e-15
 139    -1.0855990526814e-14
 140    -0.037797533842111
 141    5.7739512615428e-15
 142    1.2409319404774e-14
 143    -1.5083155920025e-14
 144    -2.1922312019126e-14
 145    -4.8644224934109e-15
 146    1.497377878492e-14
 147    -5.6628661418601e-15
 148    -2.2456032589831e-14
 149    -7.1787645921168e-15
 150    -2.3432973095231e-14
 151    -2.0110040314236e-15
 152    2.0291898924948e-16
 153    -3.1993749193192e-15
 154    1.7565755758738e-14
 155    9.6743423426822e-15
 156    3.4901618175802e-16
 Sym= A
 Ene=     2.518778444
 Spin= Alpha
 Occup=    0.00000
   1    -0.021191715831965
   2     -0.31820747609799
   3       1.8030841031292
   4    -1.2778595130863e-15
   5      -0.1775200715075
   6    0.0092920172478083
   7    9.5867644528887e-15
   8      -2.0357581657576
   9       5.3684035246256
  10      0.15855019928573
  11    4.7543010419719e-15
  12     -0.11063223411882
  13     -0.11285205014068
  14    -2.3736386979527e-14
  15    -0.050252406886899
  16      -0.7895961589989
  17       4.8932147283746
  18    4.0484805481228e-15
  19      0.16997024886884
  20      0.12286929389693
  21    1.7581015562446e-15
  22      -2.1366959033461
  23       1.5232286229996
  24      0.38700624817136
  25    3.9076625589869e-16
  26     -0.17872512627033
  27     -0.38299700260772
  28    -9.40656565745e-15
  29    -0.0097552872241156
  30     -0.07012510907347
  31      -1.0288379602129
  32    4.8180968414688e-15
  33     -0.19254671543686
  34     -0.10694524092366
  35    -3.651277149698e-15
  36       0.7088494145986
  37     -0.74890466299837
  38       0.1103673303502
  39    -1.6049387021624e-14
  40      0.18369435879285
  41     -0.29449839010962
  42    -8.3418992784661e-15
  43    0.0016371413896583
  44    0.0053971267749239
  45       1.2113514873214
  46    3.3898106490246e-16
  47     -0.19817665181249
  48       0.1466523106297
  49    5.0655859657304e-16
  50      0.60781628068603
  51      0.72071179319863
  52    0.0015436244015203
  53    8.4552117004872e-15
  54     0.037630595801208
  55      0.23622823563226
  56    -1.1159685762874e-14
  57     0.047795324378269
  58      0.53359724535752
  59      -4.4471529360347
  60    -1.548956951928e-15
  61     0.051644913278725
  62     -0.06997830049747
  63    5.4684556797791e-16
  64      -1.8093086599304
  65       -1.319008720124
  66      -0.3800134789096
  67    4.7094929748222e-15
  68     -0.10484698932707
  69      0.25299973504422
  70    -1.3668409871123e-16
  71      0.02133260222813
  72      0.44926047729863
  73      -1.8527725272294
  74    7.2731726865657e-16
  75    -0.018329457723052
  76    -0.040280101173748
  77    -1.0358467634305e-14
  78      -2.2495187893579
  79      -4.9336708124092
  80    -0.055149430691542
  81    7.435703120449e-15
  82    -0.025981327014948
  83       0.2859105411914
  84    -2.5668282137356e-14
  85    0.0099215801669387
  86      0.17668168511982
  87       3.3768041036386
  88    -3.3920672833303e-15
  89    -0.052631172583971
  90     -0.11332081050207
  91    6.7199359420242e-15
  92    -0.054516872343604
  93      -1.1612224295735
  94    -0.090524975609894
  95    7.3844970555462e-15
  96      0.10574862424968
  97    -0.034621761417152
  98    5.9193251646376e-15
  99    -0.0089702546051473
 100     -0.18635087259951
 101     -0.52404983580488
 102    -3.2882358506805e-15
 103     -0.12960054998061
 104      0.12586954031676
 105    -1.0900760556247e-14
 106     -0.19247718015331
 107      0.12152604950074
 108      0.16589072168049
 109    7.6592031761466e-15
 110     -0.18523922036258
 111    -0.082214991866835
 112    -2.0786731498087e-14
 113     -0.02770429964559
 114     -0.19562508185608
 115      0.45801991929865
 116    3.4420375969012e-15
 117    0.0046079405289476
 118     0.082938413154324
 119    1.3014274885802e-14
 120      -0.2591195546464
 121     -0.35393529838652
 122     0.092660617566273
 123    -1.4080168975316e-14
 124     0.095787418208982
 125      -0.2107986654552
 126    -3.0962401735875e-14
 127    -0.038418756846503
 128     -0.70135304750232
 129       -3.258566394029
 130    -5.42583616236e-15
 131     0.099689944968558
 132    0.0037289447640089
 133    -6.2706298801626e-15
 134     -0.40667558535151
 135       1.6598673649131
 136      0.16305665205754
 137    -7.8019100156713e-15
 138    -0.021045380500523
 139     -0.28783018180802
 140    -1.0778108257426e-14
 141     -0.06904303424363
 142      0.46873508061575
 143    -0.034743940094872
 144     -0.45053736254727
 145     0.087217262113498
 146      0.19929101304294
 147    -0.00088114274511058
 148     -0.36601515267833
 149     -0.11548236627416
 150     -0.13772699113638
 151     -0.18173143563747
 152     0.076385426775988
 153    -0.094125682140003
 154      0.17580819464407
 155    -0.016203844348623
 156      0.13881516252419
 Sym= A
 Ene=     2.573320765
 Spin= Alpha
 Occup=    0.00000
   1    -4.1430787558548e-14
   2    -5.2984091018166e-13
   3    2.4034397357418e-11
   4     -0.06739044746417
   5    1.1035893018945e-12
   6    5.6089021406717e-13
   7     -0.20363392547401
   8    -1.0091285634808e-11
   9    3.2806484326558e-11
  10    1.7119334034506e-13
  11      0.01218759621563
  12    -1.6939140159773e-13
  13    -5.6589840854801e-13
  14      0.10916432349905
  15    -2.150678679955e-13
  16    -1.606770742931e-12
  17    2.5827115230661e-11
  18    -0.021731687664553
  19    3.0490799737556e-14
  20    2.3790597963363e-13
  21      0.20084198824848
  22    -9.8771674058523e-12
  23    3.5832221122888e-12
  24    -2.1708611527991e-13
  25     0.024243594737795
  26    -3.2596773694432e-13
  27    -1.6555297049011e-12
  28     -0.21088034884774
  29    -1.8362099112971e-14
  30    3.2348983317874e-13
  31    -6.8114833008109e-12
  32    -0.0078260667021374
  33    3.8063291836432e-13
  34    -3.6848858547172e-13
  35     -0.31317973147781
  36    1.9327534197431e-12
  37    -9.1799791845186e-12
  38    5.6230091022513e-13
  39     -0.25619877450209
  40    -1.0269087794421e-12
  41    -8.3583931029064e-13
  42      0.49556003883197
  43    -6.8422854371876e-14
  44    -9.6007591654239e-13
  45    7.6673738671249e-12
  46     0.063973876431849
  47    -2.2179054165728e-14
  48    -3.1631417345087e-13
  49      0.37356077319377
  50    1.7362845576155e-12
  51    6.4687116855816e-12
  52    2.5834745037147e-13
  53      0.47022162138369
  54    9.5749243365104e-13
  55    -1.3549189646121e-13
  56      0.34897317187585
  57    1.5187871340316e-13
  58    1.7814248719752e-12
  59    -1.5272930636845e-11
  60    0.0032512515905311
  61    3.9989300525554e-13
  62    -4.7267553026035e-13
  63     -0.27096360404077
  64    -6.1127395593394e-12
  65    -1.7636857626544e-12
  66    -2.0197752708169e-13
  67      0.28972068854507
  68    -7.8086770829846e-13
  69    1.673375611976e-12
  70     -0.34856978094486
  71    -1.5141419694442e-13
  72    -2.0028746852226e-12
  73    -2.2680116858631e-12
  74    -0.029614265873998
  75    -3.7725810234953e-13
  76    -1.6111396619397e-12
  77      0.22062654165938
  78    -3.6522246628065e-12
  79    -1.2289359167076e-11
  80    -2.9564689557028e-13
  81    -0.090313266261442
  82    -1.9847136732635e-13
  83    -8.6854591022011e-13
  84      0.24909159599591
  85    -1.1201778861401e-13
  86    -7.0056169080818e-13
  87    2.1970435161082e-11
  88     0.051334795186903
  89    2.6562234351505e-13
  90    -2.0243128196216e-12
  91    -0.080029831214381
  92    9.5427935359335e-12
  93    -2.4473868149926e-12
  94    8.2511829789802e-13
  95    -0.044031996699237
  96    5.8369622067993e-13
  97    -6.18079522755e-13
  98     0.043860651698961
  99    -6.8651200070899e-14
 100    -4.0911829102325e-13
 101    -1.0275570843626e-12
 102     0.059210259639043
 103    9.159242884272e-13
 104    -2.2772018242436e-13
 105       0.1887636903216
 106    8.2842517490062e-13
 107    -7.5778532548497e-13
 108    -6.7415784933721e-14
 109      -0.2166007249872
 110    1.9813491879033e-12
 111    -5.5569123077981e-13
 112      0.42143199569093
 113    1.1064916509229e-13
 114    -2.8568294131107e-13
 115    -1.2973090942424e-11
 116     -0.03915236577247
 117    6.5849401456523e-13
 118    2.044585178869e-13
 119     -0.14534007740405
 120    2.9183137564916e-12
 121    5.3034632486606e-12
 122    -9.8068754356712e-13
 123     0.049341201609511
 124    2.6014753815792e-13
 125    8.1841610443833e-13
 126      0.36303952399079
 127    2.535680452775e-13
 128    3.1321892480675e-12
 129    -4.0590420136212e-11
 130    -0.002902013815714
 131    -1.3401178441096e-13
 132    1.1663174388071e-12
 133     0.018808095023097
 134    1.5629367013849e-11
 135    2.553424650802e-11
 136    -6.4760106757256e-13
 137       -0.164308616908
 138    1.1009042116402e-12
 139    1.3234329121902e-12
 140      0.28683075957958
 141    -9.4654490267133e-13
 142    2.0581256980732e-12
 143    -2.4007620317785e-12
 144    -4.6781115036703e-12
 145    -1.3486685057409e-13
 146    1.8374084984304e-12
 147    1.0148043760027e-12
 148    -1.448083395061e-12
 149    4.1478964450027e-13
 150    2.2949574439304e-12
 151    1.2595099707376e-12
 152    1.5420205821464e-13
 153    2.5507840789401e-13
 154    -1.1326374886715e-12
 155    1.4178605026604e-12
 156    6.0859472965733e-13
 Sym= A
 Ene=     2.575101101
 Spin= Alpha
 Occup=    0.00000
   1     0.010162090708585
   2      0.12303262433441
   3      -5.6374319174622
   4    -2.9478806342802e-13
   5     -0.24967438337518
   6     -0.12999565146876
   7    -8.9163944330455e-13
   8       2.2986076367726
   9      -7.5932215114074
  10    -0.042872849301343
  11    5.2140729579227e-14
  12     0.029193361832237
  13      0.12992643496021
  14    4.7680889419696e-13
  15      0.04931452557798
  16      0.36504201372171
  17      -5.9203655954233
  18    -9.6045728114823e-14
  19    -0.0058091369912658
  20    -0.058970998054686
  21    8.8230174533773e-13
  22       2.2732629809597
  23     -0.81603320135671
  24     0.052092451550765
  25    1.0105381985615e-13
  26     0.075481759708163
  27      0.38011991824962
  28    -9.2545569515494e-13
  29     0.004395825090591
  30    -0.071264931616685
  31       1.5614763040723
  32    -3.7167919590528e-14
  33    -0.088636739779279
  34      0.08442935247835
  35    -1.3764211406351e-12
  36     -0.43635462921015
  37       2.0902183550441
  38     -0.12546457885172
  39    -1.1310923629405e-12
  40      0.23179782260707
  41        0.194391210444
  42    2.1781387841216e-12
  43     0.015717659392232
  44      0.22316608823384
  45      -1.7414112094555
  46    2.8231903475921e-13
  47    0.0075977949886907
  48     0.073500234288892
  49    1.6423268691683e-12
  50     -0.39935962271597
  51      -1.4715121855528
  52    -0.059139320313886
  53    2.0702970167236e-12
  54     -0.21721277568679
  55     0.034872482937307
  56    1.5342474708129e-12
  57    -0.034128278509994
  58     -0.40216222255035
  59       3.4586224906208
  60    1.2893400404285e-14
  61    -0.090107976768818
  62      0.10508220749315
  63    -1.1898818241098e-12
  64       1.3773249154331
  65      0.40424499911763
  66     0.048110860209987
  67    1.2753230440186e-12
  68      0.17843031897018
  69     -0.37647077441079
  70    -1.5317315035539e-12
  71     0.034790991897987
  72      0.45806128196987
  73      0.51470614976544
  74    -1.2991504913155e-13
  75     0.088280404130572
  76      0.36896189810715
  77    9.6566544035719e-13
  78      0.84172859116639
  79       2.7785075738569
  80     0.064483650999064
  81    -3.9494341378062e-13
  82     0.051369166364926
  83      0.19851091902985
  84    1.0892727832951e-12
  85     0.025716816981805
  86      0.16118319320637
  87      -5.0353127202887
  88    2.2484968342359e-13
  89    -0.063474332491124
  90      0.45639756374279
  91    -3.4860326491267e-13
  92      -2.2027914316392
  93      0.53592834916244
  94        -0.19109984553
  95    -1.9317014113058e-13
  96     -0.12612841716345
  97       0.1392951722647
  98    1.9693782160832e-13
  99     0.014698949800432
 100     0.081644830763923
 101       0.3392700443807
 102    2.5961362684848e-13
 103     -0.21141024664812
 104     0.052417359204097
 105    8.2653500155469e-13
 106       -0.172567705954
 107      0.11511023583859
 108     0.025641902294925
 109    -9.4931235495309e-13
 110     -0.45219836502198
 111      0.12164238426173
 112    1.8470250459964e-12
 113    -0.025094174903429
 114     0.069513696025428
 115       2.9870955518468
 116    -1.7208637825122e-13
 117     -0.15131553764515
 118    -0.048768546688247
 119    -6.3662467516186e-13
 120     -0.67532884755327
 121      -1.2148813305955
 122       0.2169868327328
 123    2.1780307911555e-13
 124    -0.054623881546585
 125     -0.19049846616557
 126    1.5901663863392e-12
 127    -0.058167311594082
 128     -0.71900575949355
 129       9.3510509477083
 130    -1.333116407324e-14
 131     0.035401511733046
 132     -0.27226327682897
 133    8.1626607639094e-14
 134      -3.5580542660119
 135       -5.977056830089
 136      0.14920354662648
 137    -7.2012155115544e-13
 138     -0.25043018723633
 139     -0.30180956022014
 140    1.261230125775e-12
 141        0.216252013105
 142     -0.47623716144666
 143       0.5429261737134
 144       1.0659274322328
 145     0.031105205860461
 146     -0.41929608272308
 147     -0.22873450981685
 148      0.32456001045676
 149    -0.097979107702201
 150     -0.52688202131585
 151     -0.29043763816618
 152    -0.020954290370736
 153    -0.058404745465791
 154      0.26002749502524
 155     -0.32111284252652
 156     -0.14098712629022
 Sym= A
 Ene=     2.604952797
 Spin= Alpha
 Occup=    0.00000
   1     -0.04834834500469
   2     -0.26163931107072
   3       10.198690619746
   4    -2.6861453551096e-14
   5    -0.071638688614319
   6     0.066928061886292
   7    6.4665696238427e-15
   8      -0.5109779328394
   9       8.7078726550447
  10      0.28182385152769
  11    2.0333642226434e-14
  12      0.42167153483309
  13    -0.066419192650087
  14    -5.1695882255768e-14
  15    -0.026438361120784
  16     -0.13112220539693
  17       3.5608360978728
  18    -5.1355394416464e-16
  19    -0.010306436679379
  20      0.26291932586506
  21    -1.7033364215461e-14
  22       -1.899673535267
  23      0.29054703241677
  24     -0.07349485794997
  25    1.2296725991052e-13
  26    -0.096518951552241
  27     -0.26339103486142
  28     2.53538683726e-14
  29    -0.0074854572934761
  30     -0.17481522991381
  31      -1.0270592388165
  32    1.9620523327528e-14
  33     0.039619252269753
  34    -0.0083212637112812
  35    1.5802525306632e-14
  36    -0.060249562869709
  37     -0.23379478369908
  38    -0.098249145129444
  39    6.4220606368469e-14
  40      0.11645688240584
  41     -0.22002071017434
  42    4.1339037773982e-14
  43    -0.007603742740622
  44     -0.25842486820426
  45       0.1416926389892
  46    1.7202502463457e-14
  47     -0.13883300198389
  48    -0.027329306374551
  49    2.6853130589977e-14
  50      0.45464617779698
  51      0.26241146302576
  52    -0.041383184570088
  53    9.5084583015617e-14
  54     -0.17996339214781
  55     -0.13471458814714
  56    -5.1669699993593e-14
  57    -0.0091205640234069
  58    -0.053606446622502
  59     -0.56612075446042
  60    -4.4670742508981e-15
  61    -0.038599423503282
  62      0.16641889544462
  63    -2.2579067256134e-14
  64      0.11994394527455
  65     -0.64496765559856
  66     -0.14612507313918
  67    1.3812170666844e-13
  68     -0.10750633961685
  69     -0.14594292600914
  70    -3.6867300322097e-14
  71    -0.017459183267531
  72    -0.046470921621537
  73     -0.32281148203606
  74    -2.7210901218044e-14
  75    -0.083885709497174
  76     -0.10735506702984
  77    -1.2172431334994e-15
  78      -1.2081491472097
  79     -0.78943992179557
  80      0.17010793330406
  81    2.686863442933e-14
  82     -0.42001824998466
  83    -0.0043975723049423
  84    3.0555943327064e-14
  85      -0.0149099923327
  86        -0.10211452357
  87       3.4294824357848
  88    -7.8025940174448e-15
  89      0.17724930865944
  90      0.23365620696643
  91    -6.6101515186039e-15
  92       1.8720550239292
  93      0.74167754401299
  94      0.18299256229628
  95    -3.6143813906035e-14
  96     -0.25720836714271
  97      0.06118522469125
  98    -1.7997133667065e-14
  99     0.048712148823701
 100       0.5948717046316
 101      -6.2970014462838
 102    1.0857239143085e-14
 103        0.174806863701
 104     0.014622123069376
 105    2.4317409500114e-14
 106      -1.0583188152425
 107       3.2829619398796
 108      -0.5143485051212
 109    -7.5146255806073e-14
 110     0.020579023918771
 111       0.2437780310565
 112    3.8985971442296e-15
 113    -0.018496959828762
 114     -0.39873010722351
 115      -1.5191248748896
 116    1.5249784087002e-15
 117      0.10969336219162
 118      0.18650114419365
 119    -1.9153652311917e-15
 120      0.39495923618582
 121      0.24534975522946
 122      0.41085138813796
 123    2.0953209767077e-15
 124     -0.13055261285104
 125      0.13370383723628
 126    -5.4241500690967e-15
 127     0.015435893762748
 128      0.14929311991515
 129      -7.6858117681827
 130    -8.3895386665971e-15
 131     -0.23966749205933
 132      0.30684807980096
 133    -1.5163233447037e-14
 134    -0.054066670411005
 135       9.8670534071075
 136    -0.023385973174534
 137    -4.2439922735359e-14
 138     0.083469935178383
 139    -0.042224211763931
 140    4.2787228203643e-14
 141    -0.068367007659927
 142      0.52740465357112
 143      0.21804114718898
 144    -0.086026489492635
 145      0.14933908556222
 146       0.1132253372455
 147      -0.0867804333855
 148      0.13342175341016
 149      0.19038662741555
 150      0.25847398396369
 151      0.16961401781247
 152     -0.78533341231727
 153    -0.076386140042782
 154    -0.009404878306392
 155     -0.11819671949893
 156      0.14081152080034
 Sym= A
 Ene=     2.611171432
 Spin= Alpha
 Occup=    0.00000
   1    1.0530039018513e-14
   2    5.9643105538038e-14
   3    -2.1908511560855e-12
   4    -0.095336375681738
   5    1.4321611676529e-14
   6    -1.3439663292175e-14
   7     0.088833670785667
   8    1.1323876837926e-13
   9    -1.8292608933471e-12
  10    -6.3346434376204e-14
  11     0.076240083831976
  12    -8.5260355597743e-14
  13    1.1149835830676e-14
  14     -0.25715329805147
  15    5.2213501542318e-15
  16    2.4413707089349e-14
  17    -7.3660829305059e-13
  18    -0.0032505167364631
  19    3.4504501258121e-16
  20    -5.2200542418208e-14
  21     -0.16171165926217
  22    3.8666589187702e-13
  23    -5.6795739995726e-14
  24    1.6892819734474e-14
  25      0.56487821876967
  26    2.190608572193e-14
  27    5.7812952729351e-14
  28      0.21840110805401
  29    1.7908822836037e-15
  30    3.3164239652299e-14
  31    2.0181270578831e-13
  32      0.08736874300049
  33    -7.1510732379334e-15
  34    -2.7310459203419e-15
  35      0.20971202467146
  36    2.2669752410369e-14
  37    5.3896504349385e-14
  38    2.1551414967799e-14
  39      0.44882405077786
  40    -1.8320531312517e-14
  41    4.2269914576714e-14
  42    -0.0011432651176051
  43    1.4577273925525e-15
  44    5.2744532849457e-14
  45    -2.2181990947963e-14
  46     0.059155032730109
  47    2.6514286284897e-14
  48    6.9977408411205e-15
  49    -0.025037140248893
  50    -8.2985362503295e-14
  51    -5.800452366709e-14
  52    4.0562383422064e-15
  53      0.25350235615833
  54    3.8397447078161e-14
  55    2.3639522328172e-14
  56     -0.38617094383033
  57    1.3213803430595e-15
  58    1.1321415729958e-14
  59    1.4493776554197e-13
  60    -0.014708105801421
  61    8.5794269520384e-15
  62    -3.2503496702141e-14
  63    0.0030333048816517
  64    -2.2231338223867e-14
  65    1.3842178209036e-13
  66    2.8399760768918e-14
  67      0.57645633143062
  68    2.2976655535314e-14
  69    2.4608127637164e-14
  70    -0.018265456301502
  71    3.5691273544545e-15
  72    5.427905404275e-15
  73    1.1569471538349e-13
  74     -0.12704984772017
  75    1.3349795602082e-14
  76    2.368979883045e-14
  77    -0.079906005889584
  78      2.6885415577e-13
  79    2.0596815818296e-13
  80    -3.5229897721931e-14
  81      0.18106629785947
  82    8.3922348652993e-14
  83    -7.1603144928312e-16
  84       0.1124295864011
  85    3.4347133014293e-15
  86    2.5708399437271e-14
  87    -7.590994837202e-13
  88    -0.064346703605552
  89    -3.4372703558449e-14
  90    -4.4795338823639e-14
  91    -0.0095463774322404
  92    -3.9342911559997e-13
  93    -1.2025116214656e-13
  94    -3.9316345799794e-14
  95     -0.18266843252141
  96    5.1690384269684e-14
  97    -1.0853269940023e-14
  98     -0.11073446409124
  99    -9.5427372530593e-15
 100    -1.1644134241806e-13
 101    1.3053408044534e-12
 102     0.031243146378692
 103    -3.5054447072501e-14
 104    -6.4200592456442e-15
 105     0.058336319630848
 106    2.3523621384712e-13
 107    -6.7841036436632e-13
 108    9.7469012467589e-14
 109     -0.32140550278675
 110    -5.7769951564737e-15
 111    -4.6819894961285e-14
 112     -0.16202094059317
 113    4.2642581160355e-15
 114    8.5931826090275e-14
 115    3.2998885522274e-13
 116     0.015651582342126
 117    -2.3350112929752e-14
 118    -4.0575088225031e-14
 119     0.027808985176827
 120    -8.4385286471983e-14
 121    -5.9938717350134e-14
 122    -8.6560125869792e-14
 123     0.056116997552424
 124    2.5196052622812e-14
 125    -2.5005605369047e-14
 126     -0.14607363546585
 127    -2.7570877367676e-15
 128    -2.2965605016798e-14
 129    1.612071053568e-12
 130    -0.026425866746643
 131    4.8798847523556e-14
 132    -6.1365477037759e-14
 133    -0.061670037334424
 134    3.5528004816199e-15
 135    -2.1000551926543e-12
 136    8.188314724471e-16
 137     -0.11151283982549
 138    -1.8405273712558e-14
 139    1.1132518226048e-14
 140      0.15114013836073
 141    1.9373645001466e-14
 142    -1.0905842054745e-13
 143    -4.3093592114179e-14
 144    1.9340944934444e-14
 145    -3.028633154492e-14
 146    -2.2659071187512e-14
 147    1.237103456698e-14
 148    -2.6574743609367e-14
 149    -3.8452717337955e-14
 150    -5.3640146970587e-14
 151    -2.9972309821868e-14
 152    1.6226151214764e-13
 153    1.7683150207478e-14
 154    2.9411187601295e-15
 155    2.3492045972252e-14
 156    -2.9353155799136e-14
 Sym= A
 Ene=     2.664727288
 Spin= Alpha
 Occup=    0.00000
   1    -0.031042433634227
   2     -0.45220943424528
   3       2.0733400229444
   4    4.6105366979793e-16
   5     -0.10838873431943
   6      0.25160523054729
   7    2.9781873160502e-15
   8      -2.1092535551381
   9       1.4808906581596
  10     0.092822912024754
  11    -5.242754166019e-15
  12      0.11444039378519
  13      -0.3526392325202
  14    -2.8091838166662e-15
  15    -0.034742087306235
  16      -0.2880054750888
  17       1.6175122896666
  18    7.0423732354599e-16
  19    0.0007833864349107
  20     0.035937744313135
  21    9.1040275698455e-16
  22     -0.46112171864239
  23      0.88673128012691
  24      0.41034440842902
  25    -1.1431467024028e-14
  26     -0.15205351373551
  27     -0.16438429424882
  28    -2.6917809839567e-15
  29    -0.004175808884129
  30    -0.010009471384238
  31      0.83974422289619
  32    -1.1747455122251e-15
  33     -0.27521959869574
  34    -0.049720883306999
  35    -3.0277382066746e-15
  36    -0.0082016029820112
  37       0.0517112710228
  38    -0.068285710802739
  39    -1.0852378593425e-14
  40     0.082929778338334
  41     0.039597205749576
  42    -4.5835194083033e-15
  43     0.024547019604048
  44      0.26855555984605
  45      -1.7388415006199
  46    3.7346330825356e-17
  47      0.01960127267797
  48    -0.003780719847248
  49    3.088538507532e-15
  50     -0.41562766027424
  51      -1.0777358624371
  52     0.033168976109458
  53    8.5387823913244e-15
  54      0.24871338482991
  55      0.23743306165244
  56    -3.6128088562384e-15
  57    -0.034847258673687
  58     -0.26551066906134
  59       3.6916015333407
  60    -1.5372723523982e-15
  61    -0.0071130528203636
  62    -0.098530660153271
  63    -2.0274883751427e-15
  64        1.839698398869
  65      0.35249412159368
  66    -0.051976345311424
  67    4.445198564832e-15
  68      0.13304576119431
  69     -0.27238330933824
  70    -4.8680669401304e-15
  71    -0.0069113086755422
  72     -0.26380723994045
  73       1.0209394844979
  74    -1.3291535449912e-15
  75     -0.23089110895535
  76    -0.033167877523841
  77    -2.6648944660955e-15
  78    -0.050443355530035
  79         4.59164563145
  80     0.094675614177736
  81    -3.5871278416676e-15
  82      0.20149946849948
  83    -0.094879919027991
  84    -4.0630215158701e-15
  85     0.047055958266467
  86      0.41560359651432
  87      -4.5167621870249
  88    2.2186887311692e-15
  89     0.090298454090431
  90    -0.030046387524354
  91     4.40073751209e-15
  92     -0.16302301121111
  93       2.2968679390305
  94     -0.11674510894538
  95    -3.7655043143633e-15
  96     -0.17072169526985
  97      0.35668090288952
  98    1.041737247741e-14
  99    -0.012848691828434
 100     -0.15404207615375
 101       1.8130728472651
 102    1.4832800644813e-15
 103    -0.076778524699748
 104    -0.081689948375192
 105    2.5459185725501e-15
 106       1.1384058039543
 107     -0.97179912774625
 108     0.069534196789285
 109    -2.9580818746982e-15
 110     0.055502398684557
 111     0.051062530884759
 112    9.5557368695433e-15
 113     0.034068053080644
 114      0.41480556777175
 115      -2.9116325020354
 116    -2.0074772116523e-15
 117    -0.044904095161604
 118     -0.16535414330455
 119    -2.8833282378392e-15
 120       1.1115434755074
 121       1.0925526457387
 122      -0.1242763931694
 123    6.837502109788e-15
 124      -0.4372219570063
 125      0.24237317595534
 126    8.5471088608515e-15
 127     0.029396352234477
 128      0.47982161385713
 129      -1.9714445931397
 130    2.6180274803943e-15
 131     -0.13089558006993
 132      0.32106957175658
 133    -4.2590386626579e-15
 134       2.1243097602691
 135       1.3304601161051
 136    -0.072907552280118
 137    -1.6558977849641e-16
 138      -0.3217969871007
 139       0.3078098808815
 140    1.5364785442789e-14
 141     0.025040344470592
 142     0.057260806053016
 143      0.14991967630803
 144     -0.46430376499086
 145     -0.16350190554074
 146     -0.20709205134452
 147     -0.11095744765012
 148      0.44298584022943
 149      0.22723248791089
 150     -0.14889797770144
 151     0.061250490608981
 152      0.34290130132976
 153      0.27983778039436
 154     -0.42872813481392
 155     -0.06331056585833
 156      0.26976840378577
 Sym= A
 Ene=     2.684394915
 Spin= Alpha
 Occup=    0.00000
   1    -0.043800031430858
   2      -0.5860078355888
   3       9.7382514448041
   4    -9.0545184799174e-16
   5      0.22311497005418
   6     -0.20481175045993
   7    -2.0667385839766e-16
   8      -1.6974976527503
   9       10.339924308796
  10      0.16495827276189
  11    3.092369485077e-15
  12     -0.11779080569303
  13     -0.06717002382533
  14    2.5918500982789e-15
  15    -0.045662719445553
  16     -0.38028164710657
  17       6.1577841244842
  18    1.3409863634709e-15
  19     0.021982739689563
  20    -0.010651366527305
  21    -2.6110176010227e-15
  22      -2.6829298628791
  23      0.73708320615488
  24    -0.098622172570538
  25    5.4949028377278e-15
  26    -0.046614054665885
  27     -0.43520285898401
  28    8.1454113866417e-16
  29     0.014987679059789
  30      0.13112604469597
  31      -1.7820187102687
  32    -3.7374334598454e-16
  33     0.040487474813812
  34     -0.07999798984414
  35    2.5474537095638e-15
  36      0.49410453692574
  37      -1.6566336518599
  38      0.14542416207651
  39    7.2394199681981e-15
  40     -0.20853807454822
  41      0.17331257603494
  42    1.8694398153612e-15
  43    -0.010408899268292
  44     0.041314738227713
  45      0.68056533602904
  46    -4.6522025124677e-16
  47       0.2330033190303
  48    -0.074546618725848
  49    -2.0468832307541e-15
  50      0.20012195584208
  51       0.4839344615855
  52     -0.10013476051532
  53    -5.7953096407346e-15
  54     0.073809220562483
  55    -0.031364379520754
  56    3.0326744345426e-15
  57    -0.040373571046769
  58     -0.27519719638115
  59     0.040073179411891
  60    4.1972270168176e-16
  61    -0.010135245703333
  62    -0.042695483633846
  63    1.8680522876296e-15
  64      0.32304968870241
  65      0.33541848751217
  66      0.30665473579684
  67    -2.8320483367897e-15
  68      0.24768246056077
  69     -0.28084386830287
  70     3.56700906486e-15
  71    -0.014664932419473
  72    -0.097635841345532
  73      -1.2478647725616
  74    4.5057356795237e-16
  75      0.16281552173101
  76      0.46948754718136
  77    1.5104542320929e-15
  78      -0.2853576542145
  79      -1.1547399027007
  80     0.069290073412172
  81    2.1940265355528e-15
  82      -0.1027728581789
  83     -0.29002195578266
  84    3.3348543092022e-15
  85    0.0078321446811005
  86      0.07441311209756
  87        3.201486782294
  88    -1.2017911727366e-15
  89      0.17055174587336
  90      0.28476221570995
  91    -2.7090672258592e-15
  92       1.1269867658574
  93      0.45743898343287
  94     -0.25654907114778
  95    1.6106766936418e-15
  96      0.44530822591859
  97      0.19226033796854
  98    -6.2559235633809e-15
  99     0.036589633039275
 100    -0.0058985076663311
 101      -4.4547670801221
 102    -5.584447340011e-16
 103      -0.2021076856365
 104      0.11295716428431
 105    -1.0230732335992e-15
 106     -0.84153437311469
 107       1.7138919441499
 108    -0.055822173331633
 109    9.9043164665046e-16
 110      -0.1500445081301
 111      0.26483510226532
 112    -5.3089030749259e-15
 113    -0.061237972123753
 114     -0.41303953272309
 115      -1.5716937626628
 116    9.3219099542398e-16
 117     -0.06378451293955
 118      0.15287599794534
 119    1.7010916857272e-15
 120    -0.051098261598123
 121      0.55698117600332
 122      0.13898801375787
 123    -3.2709401077408e-15
 124     0.083841183330842
 125     -0.52213995272931
 126    -4.42575311268e-15
 127     0.032884146889667
 128      0.28366220997178
 129       -10.06606904311
 130    -9.3059528519333e-16
 131     -0.15640511993202
 132     -0.21382445364055
 133    1.2538044931354e-15
 134        1.521292336151
 135       9.8936770363817
 136     0.014784313186362
 137    5.4669094631762e-16
 138     0.090492511604149
 139     0.060192516373736
 140    -8.0198292870485e-15
 141     -0.22141154525282
 142      0.63913458470026
 143     -0.33444007467869
 144     -0.79548658995614
 145      0.04463710194267
 146      0.15039709850451
 147    -0.040073331104697
 148      0.15514527868222
 149      0.14746590924529
 150      0.10128304219338
 151    -0.0075224591447472
 152     -0.33816763143211
 153     -0.16828760496951
 154     0.041081918400756
 155       0.1962468419287
 156      0.12381955743397
 Sym= A
 Ene=     2.719655226
 Spin= Alpha
 Occup=    0.00000
   1    -1.5345792824851e-17
   2    7.0809707109551e-16
   3    1.4451821847781e-13
   4     0.055479278599104
   5    6.7573356736087e-15
   6    -7.9879656314671e-15
   7      0.19875919073359
   8    1.6577150866919e-14
   9    1.6095012770025e-13
  10    2.6636102966085e-15
  11     -0.16465147951835
  12    1.3635056719557e-15
  13    7.616711022362e-15
  14     -0.33674874507188
  15    1.2372786045244e-16
  16     1.99600314659e-15
  17    6.5756783152914e-14
  18     0.047916734533081
  19    -4.3651526736897e-16
  20    2.9086114925329e-15
  21    -0.034737392246076
  22    -3.8661448774511e-14
  23    -3.7394110124105e-15
  24    -1.0386951736229e-14
  25     -0.29925604144268
  26    2.8333007129332e-15
  27    2.1434090124601e-16
  28     0.016498923357861
  29    4.298250670748e-16
  30    2.8193872469575e-15
  31    -5.9694479600642e-14
  32     0.010372792112183
  33    1.1690744999696e-14
  34    4.8639194649107e-16
  35     0.060539934870649
  36    1.6285006193081e-14
  37    -2.1120697210839e-14
  38    2.8885440756283e-15
  39     -0.19984662867994
  40    -2.9142831214748e-15
  41    1.6737829482526e-15
  42     -0.49880119559557
  43    -1.1672459275827e-15
  44    -1.0192903919996e-14
  45    6.3839998296254e-14
  46    -0.040575782647586
  47    4.0891683501576e-15
  48    -3.3652029433621e-15
  49    -0.084026082316915
  50    2.1562412562172e-14
  51    2.619727636215e-14
  52    -1.1650866049159e-15
  53      0.10422413317892
  54    2.0431885083868e-15
  55    -1.1132288309944e-14
  56     -0.40702275223912
  57    -1.8025961351582e-17
  58    1.2064984009071e-15
  59    -6.6198339248461e-14
  60    -0.061941581531206
  61    6.5549789818793e-16
  62    -3.5126922609888e-16
  63     0.047773596754034
  64    -2.8796881045157e-14
  65    -7.8173754026995e-16
  66    9.9971335182398e-15
  67     0.049526223505205
  68    -1.4740875258673e-16
  69    3.573071735705e-15
  70    -0.036754123173809
  71    -3.9957706570778e-16
  72    -1.0322998327195e-15
  73    -3.8702971129404e-14
  74    -0.056661412927398
  75    7.8192787833454e-15
  76    3.4254988898095e-15
  77       -0.229568967022
  78    1.3431220908828e-15
  79    -1.017484388525e-13
  80    -2.2001193198118e-15
  81     -0.12161790852607
  82    -4.4697974687175e-15
  83    -4.5678838357631e-15
  84     -0.35378565749479
  85    -1.0462164867348e-15
  86    -8.0556822977706e-15
  87    1.4649951973239e-13
  88      0.07836347867815
  89    2.496294096011e-16
  90    1.5726147269251e-15
  91       0.2235369929967
  92    2.9426134999773e-14
  93    -4.389155870243e-14
  94    2.2050140075273e-15
  95      -0.1236548190209
  96    8.5172548441607e-15
  97    -4.028439373394e-15
  98      0.45025098453581
  99    8.3108961683822e-16
 100    4.3091928562745e-15
 101    -1.1830161701039e-13
 102     0.046766808723797
 103    1.6038805497892e-16
 104    2.8479333755167e-15
 105     0.066926858131988
 106    -4.545873995618e-14
 107    5.2513801575444e-14
 108    -2.912868388697e-15
 109     -0.10831038180305
 110    2.1138432252949e-15
 111    3.8797664066736e-15
 112      0.31470202039523
 113    -1.6474628754387e-15
 114    -1.5364545766862e-14
 115    1.7284782893995e-14
 116    -0.075098246898167
 117    7.0556919110041e-16
 118    6.2019960864854e-15
 119    -0.074098930525968
 120    -1.8705579803768e-14
 121    -3.7894785501497e-15
 122    6.2130135238907e-15
 123      0.23140975510128
 124    1.1952152787525e-14
 125    -1.1570131775978e-14
 126      0.25251918156718
 127    9.0690273080194e-17
 128    -3.7608106668929e-15
 129    -1.431045771027e-13
 130     0.033750112819983
 131    -2.3436956070488e-15
 132    -7.8805463782576e-15
 133     -0.18281713505536
 134    -7.0675604661094e-15
 135    1.7378865453085e-13
 136    1.5078091264633e-15
 137     -0.01128540943012
 138    8.5627156932601e-15
 139    -4.7795905238271e-15
 140      0.61293245758036
 141    -6.6050998631803e-16
 142    1.0028214962599e-14
 143    -5.5720637018729e-15
 144    -6.3230659654925e-16
 145    -1.4845889751312e-15
 146    7.2339483024915e-15
 147    4.6991059852224e-15
 148    -6.3200837975109e-15
 149    -7.3129497412105e-16
 150    7.1105973485145e-15
 151    9.7751486560377e-16
 152    -1.5747656432271e-14
 153    -1.0164918674936e-14
 154    7.7745814070749e-15
 155    2.570061082451e-15
 156    -2.9174173141824e-15
 Sym= A
 Ene=     2.775725286
 Spin= Alpha
 Occup=    0.00000
   1    -0.075038561943618
   2     -0.68126373642713
   3        5.527458880228
   4    -3.736611377455e-16
   5     0.065556754811759
   6     -0.42927714445676
   7    -1.7136868889954e-15
   8      -1.3623883757281
   9        2.507568133236
  10      0.17564555282568
  11    3.719630776722e-15
  12     0.095622952930267
  13     -0.33026712472012
  14    3.4539945614539e-15
  15      0.02112603223752
  16      0.18238850813292
  17     0.068876228142473
  18    -2.7060945294286e-16
  19    -0.041382043102162
  20    -0.091025397211168
  21    3.6937620048023e-16
  22      0.14814183560061
  23     0.005952580623559
  24     0.049535821341135
  25    2.3227556482671e-15
  26      0.31519538087353
  27      0.27659416639843
  28    2.5557735037017e-16
  29    0.0088013743172083
  30      -0.1254213177933
  31     -0.21049270257049
  32    3.4286555663826e-16
  33     0.028803404099479
  34     -0.14335700069732
  35    1.091935407678e-15
  36      0.13170987428228
  37      0.26403348950053
  38     0.073007352882356
  39    2.6715887641339e-15
  40     -0.08847437785991
  41     0.089082767585998
  42    -3.0105230984996e-15
  43    -0.020819981368333
  44     -0.15176642784127
  45      0.35547658606388
  46    -1.2603397675928e-15
  47     0.057849981201508
  48    -0.081854297973777
  49    6.6193292760474e-17
  50      0.25856981178218
  51     0.062285445889343
  52      0.12097148127088
  53    6.1629010445549e-16
  54      0.20168692292609
  55     -0.18434217657667
  56    -3.1696834113016e-15
  57    0.0083990419918223
  58     0.073656199656286
  59    -0.037303513391693
  60    2.6108003495143e-16
  61     0.020941410022748
  62    -0.011824113055426
  63    -4.9574170682436e-16
  64      0.24089900235509
  65     -0.18295414128617
  66     0.098565755365114
  67    2.8064707459513e-15
  68     -0.03002326417767
  69      0.20165306909973
  70    -1.7913385075443e-16
  71    0.0025365259522672
  72     -0.21233741881449
  73     -0.23482853530008
  74    -3.560676926101e-16
  75     -0.13023061434039
  76     -0.13337343267288
  77    1.9160705206376e-15
  78     -0.74164556766902
  79      0.75077019715712
  80     0.070627856310154
  81    4.9833788316949e-16
  82     0.025293382873792
  83     0.047051169317403
  84    4.5719142659979e-15
  85     0.045200481881271
  86      0.27974763022159
  87      -1.8629138656017
  88    -3.9094159053509e-16
  89    0.0016942290022516
  90     -0.18322335183318
  91    -2.0461543632783e-15
  92     -0.40020481734234
  93      0.27167432313247
  94      0.17159815455762
  95    -8.7485762505342e-16
  96    -0.096968660045585
  97       0.5071101168272
  98    -4.4757298004317e-15
  99    -0.056399110409233
 100     -0.16231787855383
 101       1.0900057912591
 102    -4.3176439494421e-16
 103      0.13621898745057
 104    -0.0025297038063503
 105    -1.6973822301156e-16
 106      0.10851114518367
 107      -0.7351773380107
 108      0.38953835194491
 109    1.4639953070226e-16
 110     0.052748094626991
 111     -0.23733970207986
 112    -3.4178863125132e-15
 113    -0.010015151068159
 114    -0.090620112252482
 115      -1.9713811036428
 116    4.9327677011643e-16
 117      0.18264704701678
 118     0.054722952901373
 119    4.2572349103958e-16
 120      0.73848652033029
 121      0.65205912890755
 122      0.52639473197618
 123    -1.1215982742667e-15
 124      0.19325239112194
 125      0.15151629792317
 126    -1.6917844075094e-15
 127    -0.018764947182067
 128     -0.12385561821043
 129      -2.3891285324883
 130    -1.245607154307e-15
 131     -0.34186949167293
 132     -0.36957123787058
 133    1.669958879674e-15
 134      0.95798976458358
 135       3.2714391433047
 136      0.32463747239961
 137    2.3002666696111e-15
 138     0.096919538014836
 139    -0.014218446577672
 140    -4.8538057742875e-15
 141      0.17166536783373
 142    -0.080836969367857
 143    -0.084704497625585
 144      0.26933734343351
 145     -0.17433226176413
 146      0.10547232311318
 147      0.19158751867284
 148     0.048960707481956
 149      0.33239894582696
 150     -0.26454614604574
 151     -0.14054878873458
 152      0.25255928293625
 153      -0.2867382372025
 154    -0.040345617917692
 155     0.046300706670896
 156     -0.13117764711922
 Sym= A
 Ene=     2.872808071
 Spin= Alpha
 Occup=    0.00000
   1    1.4731434164371e-15
   2    5.5482627750708e-15
   3    6.0371181628851e-14
   4     0.090684160161355
   5    2.9510945994384e-15
   6    2.9758196112553e-15
   7     -0.15739815316486
   8    4.3935020677169e-14
   9    1.149489132553e-13
  10    3.1084865373656e-15
  11      0.26038706481088
  12    5.4591817390419e-15
  13    1.4212382651605e-14
  14       0.4169363327289
  15    -3.2106394012761e-16
  16    -4.2252397421352e-15
  17    5.5138565935055e-14
  18     0.049173531253972
  19    1.2731681834685e-15
  20    8.7245011644485e-15
  21      0.13768493689142
  22    -4.171427873052e-14
  23    -4.9205035670562e-15
  24    -8.8090348036997e-17
  25     -0.34683181270717
  26    -4.4216242258526e-15
  27    -2.6465659132186e-15
  28     -0.22241469081699
  29    7.8912092854496e-18
  30    -1.2496398840181e-16
  31    -3.3020188368694e-14
  32    -0.0036646246784794
  33    3.9298948455144e-15
  34    2.9269977799475e-15
  35    -0.077677215205668
  36    5.707783410347e-15
  37    -1.2158380011616e-14
  38    1.2192639982381e-15
  39     -0.34943289969158
  40    4.4481005032803e-15
  41    -1.7908117547938e-15
  42      -0.4061719334804
  43    -3.2863493620808e-17
  44    -3.1482945198915e-15
  45    2.1604843286378e-14
  46    -0.0022844750875738
  47    1.315575004495e-15
  48    -1.8006054182707e-15
  49     0.063071649713603
  50    1.0192929091232e-14
  51    5.3571918379638e-15
  52    -3.3964665972405e-15
  53      0.30345142758107
  54    6.0129003817257e-15
  55    -1.073697114266e-15
  56     -0.38133448207436
  57    -2.5097062738481e-16
  58    7.1223080893954e-16
  59    -2.1054254316128e-14
  60    -0.037784967720029
  61    8.8396517939037e-16
  62    -4.6362060783519e-15
  63     -0.10656559022627
  64    -2.0079023577992e-14
  65    1.0028474179432e-15
  66    6.2426796443441e-15
  67      0.34203506520878
  68    -4.4991790601554e-15
  69    1.7222900973064e-15
  70     -0.16766718452721
  71    -1.600818052484e-15
  72    -5.6280807490269e-15
  73    -3.2157908159285e-15
  74    -0.066612600170355
  75    6.3571828847284e-15
  76    -1.9853358264924e-15
  77      0.13413631464305
  78    3.7838224215459e-14
  79    -6.2427449459479e-14
  80    3.2674903236213e-16
  81     -0.17154436652478
  82    -7.0545994492803e-16
  83    -1.118406391175e-14
  84      0.41797471417799
  85    -2.0499464338518e-15
  86    -9.0183832066218e-15
  87    1.1691177341333e-13
  88    0.0070324287035537
  89    3.3808969783919e-15
  90    4.7415531365165e-15
  91     -0.06489200597131
  92    2.7234837385699e-14
  93    -5.66431693625e-14
  94    3.1839315682346e-15
  95     -0.28820940659699
  96    -8.8162842086764e-16
  97    -1.3412542151675e-14
  98     -0.22979550312052
  99    7.3589929531727e-16
 100    3.035084387956e-15
 101    -6.9745162084386e-14
 102    -0.012262941622186
 103    -2.7152125807092e-16
 104    2.3276690757242e-15
 105     -0.04873333600897
 106    -3.8174743060599e-14
 107    3.6513927450391e-14
 108    -1.769340643616e-15
 109      0.02899007244863
 110    -2.4054063445288e-15
 111    4.6281539616379e-15
 112     -0.33691022037198
 113    -8.1736689881419e-16
 114    -3.3494608237956e-15
 115    -1.2223511804964e-14
 116    -0.00098858651469822
 117    -1.7298096914912e-15
 118    6.5737034380664e-16
 119     0.018915490575854
 120    -1.8439708482132e-15
 121    1.1631814475973e-14
 122    4.2177404270136e-15
 123     0.093555469502919
 124    -1.6870143511121e-15
 125    -3.9282164067254e-15
 126    -0.083614705625192
 127    1.2207704636237e-15
 128    1.5884898292777e-15
 129    -1.0687749242517e-13
 130    -0.024003125329906
 131    2.1557709606174e-15
 132    -7.1564349429693e-16
 133      0.10261523305206
 134    7.3909986512167e-15
 135    1.4569045434284e-13
 136    4.4967131182042e-16
 137      0.38625235006398
 138    -9.5651410253028e-16
 139    8.1434647993638e-15
 140     -0.23053366987865
 141    1.5502486973177e-15
 142    1.0016803385144e-14
 143    3.2244401187721e-15
 144    -6.8512277368316e-15
 145    -1.2920995907786e-15
 146    2.0637215819037e-15
 147    7.451999629206e-16
 148    -5.587297684709e-15
 149    -5.7374604217825e-15
 150    1.3534126790772e-14
 151    -2.2417240792841e-15
 152    -1.1592365115637e-14
 153    -2.0930398018505e-15
 154    -1.5625004995744e-15
 155    -1.8707481946799e-15
 156    3.9734149923221e-15
 Sym= A
 Ene=     2.877413878
 Spin= Alpha
 Occup=    0.00000
   1      0.07130092480689
   2        0.187252158458
   3      -1.2475563982845
   4    -8.3181857129485e-16
   5      0.17136963686762
   6    -0.023796590633689
   7    1.3799023769493e-15
   8       2.4106750774858
   9       1.8592001167955
  10    -0.039213622667521
  11    -2.7692473510219e-15
  12    -0.085020469608807
  13      0.52868453486329
  14    -5.2777882689083e-15
  15    -0.0043569682164495
  16     -0.09580670968756
  17       1.0437207939155
  18    -1.9806187908526e-16
  19     0.028293647644411
  20      0.19495148928534
  21    -1.1482284414394e-15
  22      -1.0889239583501
  23     -0.62163355987376
  24    -0.042952720884475
  25     3.97171278066e-15
  26     -0.13935519144159
  27    -0.020622422087718
  28    2.0496983925565e-15
  29    -0.027971032431338
  30    -0.064115218917597
  31    -0.086546514745624
  32    2.2365814038065e-15
  33    -0.011835186202316
  34    -0.009113631923751
  35    -6.1710027146758e-17
  36     -0.36662370048505
  37     -0.59723286752745
  38      0.17536072204713
  39    2.8236646924853e-15
  40     -0.01674153801481
  41     -0.24106827146071
  42    3.6088401485443e-15
  43     0.023106168364377
  44     0.042807512148306
  45    0.0015441033487731
  46    3.261291417661e-16
  47    -0.030434710626889
  48    -0.029903623009128
  49    -1.1867780089806e-15
  50     -0.32674203437828
  51      0.33589384996372
  52     -0.10913974463285
  53    -3.9669507830236e-15
  54     0.096908096181338
  55      0.20211695383181
  56    3.0051264028618e-15
  57    0.0040635599085278
  58       0.1067339189662
  59     -0.57845489834006
  60    4.1418400340315e-16
  61     0.036466635437519
  62     -0.19376959587645
  63    1.3398137521066e-15
  64     -0.80783103503038
  65      0.43914276916672
  66     0.052668246202707
  67    -3.7755729298903e-15
  68     -0.16690884731076
  69     0.061273170188992
  70    2.5124401105031e-15
  71    -0.084226843762221
  72     -0.35310983568547
  73       2.7430577272026
  74    1.6007941034914e-17
  75      0.14505653529775
  76    -0.027279102693628
  77    -9.4731325525487e-16
  78       2.5756497274339
  79     -0.83910336564875
  80     0.047304870923848
  81    2.4723031311989e-15
  82    -0.078756094932208
  83     -0.60208755459081
  84    -4.5040207761244e-15
  85    -0.036960362949812
  86      0.10912274321178
  87     0.047472774947564
  88    -7.4047283750632e-17
  89      0.21790480971963
  90      0.25018658637311
  91    3.3661988857447e-16
  92     -0.52714526211462
  93       -1.304579092295
  94     0.023648469144652
  95    3.1514295753044e-15
  96    -0.083454717980599
  97     -0.19507189683013
  98    2.5164381980278e-15
  99     -0.05608770122651
 100    -0.051525203075194
 101        1.538243954029
 102    2.5950011354319e-16
 103      0.25937438425641
 104    -0.011853177969273
 105    1.2720290063501e-15
 106      0.20034952603893
 107     -0.29540266594027
 108      0.10091005094565
 109    -1.2690535493971e-15
 110     -0.61460928201898
 111     -0.42800347432753
 112    4.7066367775613e-15
 113     0.020445023217075
 114     0.098351101245748
 115      -2.0263154105017
 116    1.4506216396496e-17
 117      0.22140192906226
 118    -0.085502492063696
 119    -5.1747094195249e-16
 120      0.99636525173639
 121      0.68472042899932
 122      0.40212467119238
 123    -8.5300366480951e-16
 124     -0.22985553170005
 125      0.33301724694222
 126    1.5877478651857e-15
 127     0.054316109409973
 128    -0.010939344030695
 129      -1.1828632113939
 130    6.3128687854331e-16
 131      0.23293962659589
 132     -0.42185223334421
 133    -1.4679691647135e-15
 134    -0.00094153110258557
 135       2.5595455609889
 136    -0.010047640993111
 137    -5.1278394323067e-15
 138     -0.03139916479062
 139      0.37241937660432
 140    3.4883872264633e-15
 141     0.091091435041298
 142      0.27219212045918
 143     -0.20952145829897
 144     -0.31257564162506
 145     0.054225287228044
 146     0.033855174485416
 147    -0.024545963452906
 148     -0.22812105465818
 149    -0.079742828724077
 150      0.23801131166256
 151     -0.37589871567317
 152      0.16856059402664
 153    -0.022146509959316
 154     -0.26194003479912
 155      0.14002936345893
 156     0.061033773266823
 Sym= A
 Ene=     2.911343855
 Spin= Alpha
 Occup=    0.00000
   1    0.0031273012876957
   2     -0.17138898755847
   3        4.412302680222
   4    -1.9063007049493e-15
   5     0.016612647432706
   6    -0.028602139043083
   7    7.6995514903891e-16
   8      0.51370601426182
   9       2.2531706660201
  10       0.1907339211488
  11    -3.8097204923382e-15
  12      0.22358655659863
  13      0.20338827136407
  14    -2.6564984070728e-15
  15     0.028405611671794
  16      0.12894606697473
  17     -0.74095787451801
  18    -1.8204558931131e-15
  19     0.022153968924562
  20      0.18752366235355
  21    -1.0318233068269e-15
  22     0.081882113668771
  23     -0.10223852526831
  24     0.078684897629018
  25    5.231788650959e-15
  26    -0.062417708297981
  27      0.25992913971155
  28    3.0740204375744e-15
  29    -0.026094232886647
  30    -0.078123292604914
  31      0.43618964933801
  32    1.2437298671852e-15
  33    -0.072484731098708
  34    -0.017906484725605
  35    -3.0618444718301e-16
  36    -0.097919714233575
  37      0.68600333817876
  38      0.18424872671816
  39    4.4469062572716e-15
  40       0.1865233707837
  41     -0.12789309534756
  42    7.9376200247603e-15
  43    -0.013244537102774
  44    -0.045645203764713
  45      0.54639694240319
  46    2.7244627684311e-16
  47      -0.1049692908338
  48     0.069430671743049
  49    9.692343325029e-16
  50     -0.21011002052897
  51      0.21131182661584
  52      0.31796706122709
  53    -2.243295734917e-15
  54      0.14002561925045
  55     0.055204519352217
  56    5.9928866018628e-15
  57     0.032508169122974
  58     0.043995558024956
  59      -1.2990416058094
  60    1.2701218722232e-15
  61     -0.07404648276009
  62     -0.11553557195342
  63    -6.9858920601268e-17
  64     -0.60619682128639
  65      0.17221801557349
  66    -0.038334711247703
  67    -1.7996645547241e-15
  68     0.087182749658602
  69      0.30325120901283
  70    1.4875573307855e-15
  71    -0.045369384536707
  72     -0.21343695934523
  73      -1.0383386593607
  74    5.1359339829577e-16
  75     0.032859810660354
  76      -0.1192512551878
  77    3.5778484270465e-16
  78      0.13243646222506
  79      -1.5828644632197
  80      0.18226905020653
  81    4.1140823676932e-15
  82       0.1690448296705
  83     -0.28109421241963
  84    -2.1269846061139e-15
  85    -0.073463066711156
  86     -0.44343872590225
  87       4.4014952484886
  88    -7.2477407742452e-16
  89      0.05636275073348
  90      0.12563241651141
  91    -4.6951707948453e-16
  92       1.6953892277777
  93      -1.4617823314994
  94      0.14290800666873
  95    4.3901889301455e-15
  96     -0.12052760292533
  97     -0.44141783142342
  98    8.8177047990976e-16
  99     0.074281903174063
 100     0.088770553562363
 101      -4.1434923743459
 102    2.4948523113472e-16
 103     -0.31338955554999
 104      0.13283176824389
 105    7.0445428017641e-16
 106      -2.0775628250603
 107       1.5460359815565
 108      0.18701703936755
 109    -6.8726519006938e-16
 110      0.18606164818704
 111      0.71289733883989
 112    3.3698554842718e-15
 113     -0.06904254621512
 114    -0.057100219048551
 115      0.92300745811134
 116    2.1480676596389e-16
 117     -0.40173367350884
 118     0.018397013647373
 119    -2.3550759089198e-17
 120     -0.85557405372054
 121      0.27763371675675
 122    -0.035779775555505
 123    -1.9987913035299e-15
 124    0.0076068967334818
 125     -0.58924403778705
 126    2.5266197290773e-16
 127     0.033295730697554
 128      0.14261968076482
 129      -3.3314667306779
 130    8.6671984697991e-16
 131    -0.015015635004192
 132    -0.012029950054457
 133    -8.0753957610973e-16
 134      0.70261985341708
 135       4.6695588236087
 136       0.2037055283113
 137    -5.8812763135661e-15
 138     -0.19238657206382
 139      0.31466674336547
 140    1.0285023805003e-15
 141      0.20980780968376
 142    -0.041565421038961
 143     0.025383673812607
 144      0.51314483017721
 145     -0.20032606879737
 146     0.058905442677036
 147      0.14388077015446
 148     -0.19434085848845
 149     -0.14276648660043
 150      0.42969515648349
 151       0.0176007264778
 152     -0.52559785006998
 153     -0.11071269922027
 154     0.052196298384561
 155    -0.022365058151388
 156     -0.15814190691922
 Sym= A
 Ene=      2.96472709
 Spin= Alpha
 Occup=    0.00000
   1    0.00039190457802706
   2    -0.011721827149591
   3        2.820249564301
   4    -5.6820039326118e-16
   5      0.17296068728146
   6     -0.15346142759174
   7    -4.3384052440109e-17
   8     -0.41205962726236
   9      0.92852819187155
  10    -0.0035344638030295
  11    -1.2236769164683e-15
  12      0.10876043443378
  13      0.14929013950063
  14    -1.0608246358595e-15
  15    -0.011414985085335
  16     0.034887971344183
  17      0.17010445386486
  18    1.7184433591619e-16
  19    -0.032526466307907
  20     0.023483604493479
  21    2.7485891611677e-16
  22      0.11501275429248
  23     -0.47899075106302
  24     -0.12389045479031
  25    1.2633477929314e-15
  26       0.3660327072668
  27     -0.22323865502218
  28    2.7670575475997e-16
  29    0.00017023969713386
  30     -0.27918655280249
  31       0.8377856626233
  32    8.6277879744862e-16
  33    -0.017457722710576
  34    -0.082159117366291
  35    -1.3916529623144e-15
  36      -0.7739912581272
  37      0.17670071212063
  38     -0.33548957596722
  39    -1.2790530491714e-15
  40      0.07766028474104
  41     -0.16370789091653
  42    2.4923672913923e-15
  43     0.062309819387106
  44      0.12304523149199
  45      -2.9063570925423
  46    4.2163597551142e-16
  47    -0.032115057172696
  48     -0.16546957092794
  49    -3.6889305118047e-16
  50    -0.087605292995559
  51        -1.43898412682
  52     -0.57816982571866
  53    -5.9945885724433e-16
  54      0.20178970563484
  55     0.093766601730451
  56    2.1670731147467e-15
  57    -0.054960758693719
  58      -0.2026079665384
  59       3.1147362722472
  60    -2.4591461799019e-16
  61     0.083208838612282
  62     -0.25750847099512
  63    9.6732567405224e-16
  64        1.430459503462
  65     -0.66140899608608
  66     -0.13854042363287
  67    -1.6724960737253e-15
  68     -0.49500198654318
  69     -0.44881553796137
  70    1.2140504773371e-15
  71    -0.012463742894094
  72      0.18685825171545
  73       -1.158220162081
  74    4.4331021347372e-16
  75    -0.063710938899907
  76     -0.18590705376766
  77    -3.1747295635773e-16
  78    -0.026733869887133
  79       1.3666343246784
  80     -0.14869632215933
  81    1.6069222103289e-15
  82      0.21867619640014
  83     -0.17378071026287
  84    -1.1342643311011e-15
  85    0.0083115506507456
  86    -0.098977306219904
  87     -0.45224810485728
  88    -3.1687830488362e-16
  89      -0.1260941947679
  90     -0.27129675393641
  91    -7.1174090592929e-17
  92      0.59878290908446
  93     -0.60574277500082
  94     -0.13595171358295
  95    1.6213763210556e-15
  96     -0.29845256986461
  97    -0.0018024255162101
  98    4.7004149965788e-16
  99    -0.025112770269078
 100    -0.050536626460952
 101      0.38773550887185
 102    -9.0983745477027e-17
 103      -0.2211967436071
 104     -0.19950883034442
 105    2.9928474417907e-16
 106     -0.72506367559253
 107     -0.62906312723661
 108      0.52412110769816
 109    -5.1811043958194e-16
 110      0.29455734129542
 111      0.10309304016907
 112    9.1352885942453e-16
 113    -0.027757488589871
 114     0.019095536753688
 115     -0.77708134641058
 116    1.6626525608209e-16
 117     -0.14820848112346
 118     0.012257955667881
 119    1.8067907427933e-16
 120    -0.027299803162107
 121      0.74556472581983
 122    -0.034019851621492
 123    -1.0477002763292e-15
 124      0.17198384309807
 125     -0.29241146019185
 126    -4.1539627820029e-16
 127     0.028349844818621
 128      0.11131663578276
 129      -2.0799055466834
 130    4.3284537347396e-16
 131    -0.067740385899576
 132     -0.24919853712518
 133    -4.7244697196459e-16
 134       1.5881095386689
 135       2.3584354848276
 136     0.028531548335854
 137    -2.8293504143757e-15
 138      0.11101764670399
 139      0.17242463526768
 140    3.5057740633451e-16
 141     -0.16529890978854
 142     0.024942765735953
 143      0.27094977548986
 144     -0.44589353757283
 145      0.13217621743789
 146     -0.30438194671691
 147     -0.24193380501745
 148      0.38990784158305
 149     -0.02484124851216
 150      0.30481352676115
 151    -0.050876340934258
 152     0.072557794474284
 153     -0.14632400036653
 154     -0.08098587757732
 155    -0.056692424990469
 156      0.31459975300178
 Sym= A
 Ene=     3.040041113
 Spin= Alpha
 Occup=    0.00000
   1     0.021848747298049
   2    -0.0099244073483026
   3      -4.2204018590268
   4    -1.240124943444e-16
   5      0.17007797574836
   6    -0.037583713906537
   7    -1.0953757540204e-15
   8       1.8202959769764
   9      -6.9369532600012
  10    0.0059302041201156
  11    -1.1852111183783e-15
  12    0.0043229898499182
  13      0.24764799045733
  14    9.5507502825267e-16
  15     0.080460416528843
  16        0.417625165648
  17      -6.8127178735495
  18    -6.6363914622903e-16
  19     0.099591786252693
  20      0.17322968311162
  21    2.3669603839099e-15
  22       3.1504684901214
  23     -0.39905166762829
  24     -0.27365590172577
  25    -2.5963786660771e-15
  26      -0.2612199089442
  27      0.35343469838867
  28    -1.3529078815958e-15
  29     -0.11048222999681
  30     -0.39344848798742
  31       5.4162900852038
  32    4.0750396477496e-15
  33    -0.0070306629845567
  34      0.13160534223612
  35    -3.5855949462833e-15
  36      -1.6716120127284
  37       2.7019943076712
  38       0.3845521602424
  39    -3.5400464254363e-15
  40     0.052248237691375
  41     -0.57323645753369
  42    -7.1668997218431e-16
  43     0.067154905805833
  44      0.41041136509829
  45      -4.1753192874403
  46    1.0669602230476e-15
  47     -0.20150624590829
  48     0.060693614050068
  49    3.6912881566559e-16
  50      -1.7961673948386
  51      -1.8456126165554
  52    -0.014960218435168
  53    1.0704923035011e-16
  54     -0.12965234136986
  55      0.43224188929597
  56    -1.4908360351939e-15
  57    -0.017106425603785
  58     -0.21683289078467
  59       4.0166520071765
  60    -4.3873389341225e-16
  61    -0.0037461878766559
  62     -0.10266979326708
  63    -5.5905630794699e-16
  64       1.8693321248064
  65      0.57523537639976
  66    -0.099357735344656
  67    -4.6595657471172e-16
  68    0.0060664794034063
  69    -0.093395205178338
  70    -1.3826838382904e-15
  71    -0.034724823986355
  72    -0.013293611804579
  73       4.2580046751238
  74    -1.2673982634378e-15
  75      0.11990971580413
  76     0.071415044181919
  77    6.1299936244918e-16
  78       1.4203995071069
  79       5.2618253359387
  80     0.080495468487155
  81    -4.0986810774775e-15
  82      0.10412216792443
  83      -0.3374344552189
  84    7.1353674739712e-16
  85     0.089096838131257
  86      0.11186375072682
  87        -7.93786751559
  88    4.9386895021079e-16
  89     -0.30602376888684
  90     0.054397030498067
  91    -2.2594593691105e-16
  92       -1.737712737427
  93       2.7914265050442
  94    -0.095737661386802
  95    -5.1046949282363e-15
  96    -0.039979142035581
  97      0.67242762496256
  98    -1.3423785404577e-15
  99    0.0099699642014713
 100    -0.012438714350094
 101      0.17279874198781
 102    5.2533218312883e-16
 103     -0.19686463363559
 104    -0.024303530743138
 105    2.948935290635e-16
 106      0.32337930600397
 107     0.076807588509563
 108    -0.086988921858935
 109    -2.6249975619388e-15
 110      0.41257945228244
 111     0.034698815508111
 112    -2.449489025826e-15
 113     0.016643485207813
 114     0.012163865448433
 115       0.4269941886771
 116    7.0038391408722e-16
 117     0.023597105495205
 118     0.082165158952903
 119    6.3791791696019e-16
 120     0.097547785378355
 121     -0.13206508703456
 122     -0.21855551858974
 123    -1.2396216929251e-15
 124     0.023878924752388
 125     0.012878584870067
 126    -2.0513153538816e-15
 127    -0.087616589217721
 128    -0.010884134325821
 129       9.1021476721471
 130    -7.449151424692e-16
 131      -0.2769649506267
 132      0.12077900268104
 133    -7.1172703244377e-17
 134      -2.0167168382163
 135      -3.7687599204754
 136     0.074541762309779
 137    -2.2595962034417e-15
 138    -0.027712791092464
 139      -0.5959638335531
 140    -1.3343104541518e-15
 141     0.021883191390945
 142     -0.65656316122787
 143     -0.24369559086096
 144       1.1257880884206
 145     0.037484664671686
 146     -0.59796278931247
 147     -0.02559070113455
 148      0.41171289231585
 149      0.28964309697283
 150     -0.42329432104273
 151      0.17008067503346
 152      -0.1443611535701
 153     0.050337403276335
 154    -0.039712582601612
 155      0.16787014757308
 156     -0.30318338976617
 Sym= A
 Ene=     3.068221263
 Spin= Alpha
 Occup=    0.00000
   1    -0.079645287182135
   2      -0.3804046823003
   3       8.4089767738196
   4    4.1905375678988e-16
   5      0.14265291670458
   6     -0.13899625124239
   7    8.3372731313966e-16
   8      -1.8298361845537
   9        4.412470527287
  10     0.099853499945059
  11    1.2908114802374e-15
  12      -0.2677138428204
  13     -0.43098276098947
  14    -1.1049611536199e-15
  15     0.050707600077696
  16      0.16596745846173
  17     0.021362908946715
  18    7.086991911995e-16
  19     0.074045418826402
  20    -0.021847388474183
  21    7.649324781476e-16
  22      0.30103286556896
  23      0.49264702036543
  24     -0.59084039246174
  25    -2.1097241826714e-15
  26     -0.07021204808611
  27     0.058433042871255
  28    -1.6544458750333e-15
  29     -0.01870498583592
  30     0.038419313835388
  31     -0.20113425849091
  32    4.2838602552972e-16
  33      0.22602803006438
  34      0.16241882193114
  35    -6.5611899817666e-16
  36      0.17760348383842
  37      0.72890098363986
  38      0.11470824496839
  39    -2.9899746594531e-15
  40      0.06811805307449
  41     -0.10139034905953
  42    -2.7150441537985e-15
  43    -0.054257822007124
  44     -0.11160299486396
  45       1.5742310954716
  46    7.8017242169627e-17
  47     -0.22988471109095
  48      0.26009977525313
  49    2.789989898838e-16
  50        0.363245986955
  51       0.8643853729824
  52      0.21232150362149
  53    1.1393220740793e-15
  54     -0.55172854437372
  55     -0.25742340411386
  56    -1.1891549516717e-15
  57     0.064072076599757
  58      0.13353221195458
  59       -2.735031426447
  60    -8.246046557714e-16
  61     -0.14100220619581
  62      0.24450661982788
  63    -1.2086623990893e-15
  64      -1.0353556291365
  65     -0.34112876034205
  66      -0.6703230079119
  67    -3.1558528359455e-15
  68      0.23471599065959
  69     0.070501790272243
  70    -4.0340832160158e-15
  71    -0.0093324332695981
  72     0.033915218350008
  73     -0.49881502926461
  74    -3.0336797742532e-15
  75     -0.32012845725369
  76      0.10665243331644
  77    -1.1417055879239e-15
  78      -1.5003168420395
  79      -1.3937650036131
  80      0.16446224823105
  81    -1.3246247716641e-14
  82    0.0023347261002945
  83    -0.025015579663083
  84    -1.4740035011338e-15
  85     0.012105112922891
  86     0.066220857448634
  87       2.3044577612407
  88    2.2779816767679e-15
  89      0.10432412262484
  90    -0.037131421543445
  91    1.4688798530203e-15
  92        1.385761911942
  93      0.26000391688916
  94     -0.33540131658622
  95    -1.4400223096267e-14
  96     -0.18607819382756
  97     0.011521205357983
  98    -6.537269737162e-16
  99    -0.026410282579683
 100    0.0070587460786678
 101      -1.0621423692714
 102    1.3367989614559e-15
 103      -0.1352223251145
 104     -0.19563450690889
 105    6.2869748357418e-16
 106    -0.030402518997804
 107      0.22753829030429
 108       0.4724946986064
 109    -5.7665168291226e-15
 110     -0.18658145541726
 111      0.01845725386263
 112    -5.6672084960505e-15
 113    -0.008814428006204
 114    -0.029172016007072
 115      -2.1758820238502
 116    3.5680727750934e-16
 117    -0.063099384494289
 118     0.089333328652277
 119    9.4917931500389e-16
 120      0.47886923338764
 121      0.82266134844937
 122      -0.1519167249226
 123    1.2059697735862e-15
 124     -0.26035664363363
 125     -0.12736240614786
 126    -2.6947121948265e-15
 127     0.059400258263029
 128      0.31081034607017
 129      -6.3646834431299
 130    -1.3020825009698e-16
 131      0.24688419655283
 132     -0.10375662115461
 133    -2.0136792950383e-15
 134       2.0412162880217
 135       5.5227200140649
 136    -0.051936479213981
 137    1.1470985770922e-16
 138       0.1981482337006
 139      0.34207404109026
 140    1.9779275528868e-15
 141     -0.13065789697978
 142    -0.015581353169168
 143    -0.004301828732336
 144      0.88972859551656
 145      0.15918056607043
 146      0.16022049776194
 147     -0.12069771016256
 148      -0.1413755978677
 149     0.037229208905384
 150      0.20219323122271
 151     -0.19955131102282
 152      0.11458584040373
 153      0.12402053663439
 154     -0.20720492715798
 155    -0.050139651857678
 156      -0.3383246873593
 Sym= A
 Ene=     3.085663461
 Spin= Alpha
 Occup=    0.00000
   1    -1.0597745086208e-15
   2    -3.9481843056562e-15
   3    8.3711003836356e-14
   4     0.087808890724632
   5    6.2775126873212e-16
   6    -2.1302913138579e-15
   7    -0.067500360603452
   8    -1.721722349883e-14
   9     1.68015075443e-14
  10    -4.7815868229019e-16
  11      0.29715809397049
  12    -5.3298830700944e-15
  13    -5.7971625166145e-15
  14     0.022876432540059
  15    8.9305794931914e-16
  16    3.8697998173725e-15
  17    -3.2163017041826e-14
  18     0.026182616377514
  19    1.2235649213097e-15
  20    -8.0431230407732e-16
  21     0.046579215597042
  22    1.9605972509879e-14
  23    5.0384328975559e-15
  24    -8.4798145409286e-15
  25     0.068270508672388
  26    -2.2650945228197e-15
  27    1.7095535995001e-15
  28    -0.090172660589027
  29    -7.9965193854806e-16
  30    -2.9804805809162e-15
  31    2.8768573679808e-14
  32     0.013469219688791
  33    3.6426321437484e-15
  34    2.4547689796167e-15
  35    -0.0079292486730382
  36    -7.5632513774161e-15
  37    2.1354488694674e-14
  38    3.4700398681718e-15
  39     -0.02983202846659
  40    -1.9648773720378e-15
  41    -4.9194408337345e-15
  42    -0.052264285184424
  43    -1.2031576428404e-16
  44    3.951163491212e-16
  45    -1.2372867687363e-14
  46     0.010772871925899
  47    -3.2299125900081e-15
  48    2.0733486221171e-15
  49    -0.0016311078166787
  50    -3.6702738502802e-15
  51    -3.3455710177348e-15
  52    6.5378857680208e-17
  53     0.045873003469229
  54    -8.1233537665619e-15
  55    -1.2574321207376e-15
  56     -0.11545446517388
  57    5.364603768939e-16
  58    3.9820150201524e-16
  59    -3.9295444760821e-15
  60     0.064679378161153
  61    -1.0104068885973e-15
  62    2.8511490173133e-15
  63     0.033182395532751
  64    2.6410664559229e-15
  65    -7.8876490598854e-15
  66    -7.7640631207806e-15
  67      0.33695233847814
  68    -1.0793105667357e-15
  69    6.2543073878064e-16
  70      0.19160109074161
  71    -3.0801549384967e-16
  72    -8.8728530574595e-16
  73    2.1519844471259e-14
  74      0.15266623645409
  75    -4.5778808114779e-15
  76    1.0008251130982e-15
  77     0.063992701690671
  78    -1.7077275345218e-14
  79    2.0103576318694e-14
  80    6.1653419074491e-15
  81      0.79603680845842
  82    -1.1145286819749e-15
  83    -5.8396794617861e-17
  84      0.10429012348125
  85    5.9051104172314e-16
  86    -1.4424697995751e-16
  87    -1.9465371728703e-14
  88     -0.11242769203824
  89    1.2056340984554e-16
  90    2.4085668816241e-15
  91    -0.053088382656192
  92    1.1190749584553e-14
  93    2.3653631549279e-14
  94    -2.725838673635e-15
  95      0.85512317630566
  96    -3.2626573988733e-15
  97    4.486507071257e-15
  98      0.11969769028521
  99    -2.8363768303613e-17
 100    -8.2677303736249e-16
 101    -1.8891335291333e-14
 102     -0.11488254941947
 103    -3.8737081930428e-15
 104    -1.6066551825152e-15
 105    -0.065950602609919
 106    9.2856759910184e-16
 107    5.3028081350877e-15
 108    6.423859305686e-15
 109      0.47001347883157
 110    -1.8501336496772e-15
 111    3.0175173238663e-15
 112      0.28147226768046
 113    1.8017723958694e-17
 114    -2.3592890786719e-17
 115    -2.6697008014355e-14
 116    -0.092984351189484
 117    -1.8559794821529e-15
 118    2.5901220428706e-15
 119     -0.08144125566655
 120    6.8378203812067e-15
 121    1.2155985168227e-14
 122    -5.8322101447778e-15
 123      0.14276030139787
 124    -6.0074498300665e-15
 125    -2.481676854653e-15
 126       0.2656068002406
 127    9.6082166167194e-17
 128    5.2481512474719e-15
 129    -2.4498756831008e-14
 130    -0.0065927345103773
 131    2.7565548994123e-15
 132    8.3843982667015e-16
 133      0.11767203269235
 134    1.6879644853325e-14
 135    5.0127343258665e-14
 136    7.9615492690677e-16
 137      0.48784078957993
 138    1.8040951747486e-15
 139    -1.8915257861294e-16
 140     0.013071673597154
 141    -1.9457291578924e-15
 142    -3.5353244371853e-15
 143    -3.3856659012215e-15
 144    1.527234057982e-14
 145    3.2150030991828e-15
 146    -2.2435153696577e-15
 147    -6.362894465965e-16
 148    1.4507041853544e-15
 149    3.0762749489439e-15
 150    1.5722248593912e-16
 151    -2.2843334248435e-15
 152    8.7106202534904e-16
 153    3.2974966828578e-15
 154    -4.2813180809008e-15
 155    1.3661577955056e-15
 156    -5.8963599168158e-15
 Sym= A
 Ene=     3.118076407
 Spin= Alpha
 Occup=    0.00000
   1     0.043717644636276
   2      0.10665815633442
   3      -1.8433287969074
   4    7.8663143191318e-16
   5      0.27048387020612
   6      0.17324923543493
   7    -2.855558317846e-16
   8      0.61737144420798
   9        1.331233576978
  10      0.12797887631058
  11    2.5574633743016e-15
  12      0.24892598692288
  13      0.31428129699325
  14    -7.8190879395534e-17
  15    6.8095926543564e-05
  16     -0.17863981081963
  17       1.0114077013507
  18    -2.6558675190303e-16
  19     0.071170238732125
  20      0.30920975304209
  21    -1.2547349579788e-17
  22     -0.80892554941978
  23      0.59013680543135
  24     -0.16046093979969
  25    1.6457246556497e-15
  26     -0.23059716812032
  27    -0.091867737048379
  28    2.9643805809406e-16
  29     0.035835935716267
  30      0.27941772303039
  31      -2.3760417691312
  32    -2.159788811237e-15
  33      0.11314171418063
  34      0.15381387238285
  35    6.5331833250202e-17
  36       1.4020184139634
  37     0.089809698426157
  38     0.054448993563308
  39    2.2953219249034e-16
  40      0.74355558331902
  41      0.29427090112015
  42    5.5981191818807e-15
  43     -0.06672364114197
  44     -0.17107721212894
  45       3.3942679767398
  46    3.6999470781557e-16
  47     0.001683304953576
  48      0.19396665055244
  49    1.7602026411926e-15
  50       1.1626775382641
  51      0.91827981199721
  52      0.17527327375142
  53    4.3771997899226e-16
  54      0.25813258685154
  55      -0.3264755736236
  56    5.7896096136998e-15
  57      0.03431397455643
  58      0.30103557686202
  59      -2.3774236858907
  60    8.9617797299836e-16
  61     0.024807620159456
  62     0.016098215079282
  63    -6.2921571239912e-16
  64      -1.5843203857988
  65      0.29323813718362
  66     -0.18371423663043
  67     8.97210697776e-16
  68       0.3826731723317
  69     0.099175078698988
  70    8.9446075435086e-16
  71    -0.023934940437794
  72     0.011302961204194
  73       1.9308662988547
  74    9.4743275239928e-16
  75      0.19271860995368
  76      0.20537542658127
  77    5.9544548962965e-16
  78      0.92269189654516
  79      -1.4655976644936
  80      -0.3423263358389
  81    4.8215937030262e-15
  82      0.14875891175807
  83     -0.36196706550545
  84    2.3952983218636e-16
  85     0.033354894385107
  86      0.13394792729323
  87     -0.22730011309459
  88    -6.6596659834916e-16
  89     -0.12423829907991
  90     -0.20654589279527
  91    -2.6461102138285e-16
  92     -0.60715072458747
  93     -0.16265018441331
  94     -0.29430145771594
  95    5.5328775123519e-15
  96      0.08114253691432
  97     0.083970854285854
  98    1.0534174423636e-15
  99    -0.032474232013595
 100      0.11702343264773
 101      0.62172839828187
 102    -9.1875235139552e-16
 103     0.073129431592264
 104     -0.14763402668237
 105    -4.8661856398346e-16
 106      0.21043003871862
 107     -0.15295750794047
 108     -0.10281935277255
 109    3.3054361440762e-15
 110      0.21711582883594
 111     -0.33473217701764
 112    1.6575281745345e-15
 113    0.0061919224895873
 114      -0.1222810366171
 115     -0.17008541498015
 116    -5.926307307335e-16
 117      0.17911179197547
 118    -0.028374801190753
 119    -3.4913485744507e-16
 120      0.14053219643156
 121     -0.16171772458322
 122      0.17154628963394
 123    7.8341814481226e-16
 124      0.23706157975243
 125      0.12198511795676
 126    1.6310736207489e-15
 127    0.0073197097457195
 128     -0.13512620158278
 129     -0.46500494530049
 130    -1.699739588612e-16
 131     -0.12642493615635
 132    -0.0009734981279073
 133    5.0461467121361e-16
 134      -0.4477991532187
 135      0.25945461983431
 136     -0.20218226547542
 137    3.505498131602e-15
 138      0.16347802023076
 139     -0.02180221623785
 140    -1.0256921818482e-16
 141    -0.030388545741159
 142      0.16910563190739
 143      0.52018493930655
 144      0.27614147009163
 145     -0.22725204416637
 146      0.33632843678013
 147    -0.075193100210758
 148     -0.34002935139215
 149    -0.037744122992998
 150    -0.026965266968388
 151     0.086192884475503
 152    -0.018358894447105
 153     -0.10759265248282
 154     0.095122883031139
 155     -0.32422667279391
 156    -0.058043527388616
 Sym= A
 Ene=     3.149060265
 Spin= Alpha
 Occup=    0.00000
   1     0.013403734629213
   2      0.12578248424703
   3      -3.0197515282794
   4    -2.7649378759134e-15
   5      0.11231841242859
   6     -0.20309180507144
   7    3.7546985029521e-16
   8       1.3110525220412
   9      0.30041235827719
  10      0.35846533151903
  11    -1.2097153941259e-14
  12     -0.37894488588367
  13      0.24676634608123
  14    3.8384984423958e-15
  15     0.004223593568771
  16     -0.31214732267124
  17       1.0353189263107
  18    -1.0327568989865e-15
  19      0.14789919076965
  20     -0.12990260135618
  21    -1.5842435868651e-15
  22      -1.0256183340894
  23    -0.075926959990747
  24    -0.084666437985214
  25    -5.2530910675825e-15
  26      0.16760240403607
  27     0.023377989632482
  28    4.2285587247799e-15
  29     0.062863150764205
  30      0.10928733443095
  31      -3.2810640896125
  32    -1.8005901982896e-15
  33      0.29429868680696
  34    -0.032492028742564
  35    1.5663343344201e-15
  36       1.5077406686476
  37     -0.52962525380167
  38      0.22429858841591
  39    8.7318217801595e-16
  40      0.17840191494113
  41      0.49822443228449
  42    -2.2473455382914e-15
  43    -0.051086233722402
  44     -0.25400500613901
  45       2.9106463769495
  46    -7.8102056995304e-16
  47      0.29028345748207
  48    -0.094779843083185
  49    -1.9680871086687e-16
  50       1.8716617806017
  51       0.8188633501086
  52      -0.3743918536518
  53    -4.9795417793807e-16
  54       0.2260904032512
  55     -0.51851505004273
  56    7.3439413732367e-16
  57     0.032859491975123
  58      0.40258498610229
  59      -2.7545624361188
  60    7.6525816982394e-16
  61     0.064701211991458
  62     -0.14797203087739
  63    1.6970582031579e-16
  64      -1.7049716368377
  65     -0.99826999220356
  66    -0.034016471491264
  67    1.2589279567474e-15
  68     -0.40798518956685
  69      0.16627372763529
  70    1.1860334559037e-15
  71      -0.0576305317304
  72    -0.061088521630946
  73       3.9352187766322
  74    8.8422272133976e-16
  75      0.12004883066421
  76     -0.10239105363123
  77    5.9065831297969e-16
  78      0.43624172691081
  79      -1.6681244884136
  80      0.14846358110962
  81    4.3975924443064e-15
  82     -0.14967934164808
  83     -0.24176459595368
  84    2.6696555877585e-15
  85     0.023596643550063
  86      0.14293123766232
  87      -1.1014688196937
  88    -1.6642536687477e-15
  89    -0.010639730790954
  90      0.12628822612809
  91    -1.0652807122703e-15
  92     -0.80388975081585
  93      0.17603768060261
  94     0.042068022114316
  95    2.6242484178389e-15
  96    -0.052080316215271
  97      0.20000186416125
  98    -2.3040478001247e-15
  99     0.027071009982595
 100    -0.096872125254896
 101      -0.3877040149545
 102    7.0819391036292e-16
 103     -0.17980281329322
 104      0.09457425073347
 105    8.6072061003479e-16
 106     -0.12444756793543
 107      0.43616208413206
 108    -0.021803682162471
 109    -3.2870713164332e-15
 110    -0.001069189028097
 111      0.20854649309102
 112    1.8257395833954e-15
 113     0.031580313659367
 114     0.033175631994846
 115     -0.44227965728604
 116    1.7872798581223e-15
 117     0.016031253208079
 118      0.19622967289283
 119    6.9922709464221e-16
 120      0.34915182140922
 121      0.39712602719284
 122     -0.45428067938435
 123    -5.1000079701393e-15
 124     -0.55355449120676
 125     0.075149090323993
 126    -2.7028153588969e-15
 127    -0.073466350096729
 128    -0.075996318981389
 129       3.3293329658522
 130    1.3612418659906e-15
 131      0.19515863728235
 132      0.53895030869778
 133    -4.3236938469142e-16
 134      -1.2114179531835
 135     -0.35736870657899
 136       0.3630198062471
 137    -1.3199279360539e-14
 138     0.035766762614803
 139     -0.31396869184606
 140    -2.8492066142382e-15
 141     0.056339379091705
 142      0.21786019603744
 143     0.085514660654102
 144     0.093963208301027
 145     0.020220473375663
 146      0.35792826274849
 147    0.0013773509848152
 148     -0.35765920506269
 149     0.091827957965891
 150     -0.14687175010943
 151     -0.01999628858494
 152     -0.14973101472484
 153      0.30300390538105
 154     -0.30690981224999
 155    -0.081079929255431
 156     -0.14625371801862
 Sym= A
 Ene=     3.214965771
 Spin= Alpha
 Occup=    0.00000
   1    -0.086866220439165
   2     -0.56604145259258
   3       7.5442315472686
   4    -4.1853264189503e-15
   5    -0.029562157986281
   6     0.084468096841633
   7    -4.3235700126688e-16
   8      -2.3007106678876
   9     -0.49523848692268
  10      0.35982418352246
  11    -1.7132019889714e-14
  12      0.12355306963984
  13     -0.31094164341071
  14    5.9765628048677e-15
  15     0.092179413004395
  16      0.35590487595208
  17      -4.9421032693307
  18    -2.0879720092835e-15
  19      0.16505103421091
  20      0.15584533712669
  21    5.3232203560676e-17
  22       2.7161897496205
  23      0.91102058835258
  24     -0.15245969358514
  25    -8.8459341420959e-15
  26      -0.3050147317405
  27       0.4423967849852
  28    3.416027041285e-15
  29    -0.065545040852498
  30     -0.39767625806825
  31       4.2727509056061
  32    1.4527024758547e-15
  33      0.22739840522097
  34      0.11072302761657
  35    -1.3436952187103e-15
  36     -0.41773007463969
  37       3.2298135622931
  38       0.7335186715576
  39    -1.7057019169293e-15
  40       0.1187052542762
  41     0.028993897326451
  42    -3.3269929129886e-15
  43     0.051402889656427
  44      0.45649783552578
  45      -4.0818119685658
  46    5.1949320375141e-16
  47      0.23528307747473
  48      -0.1264373483348
  49    -6.3864311870944e-17
  50     -0.53712627862994
  51      -2.7736068924844
  52     -0.51085294500148
  53    -5.0829221603565e-16
  54      0.10557925756396
  55    -0.022190545022612
  56    -1.3648875012287e-15
  57    -0.086955621034911
  58     -0.28518894641779
  59       4.8334865598015
  60    6.6486351535434e-16
  61      0.18153215950446
  62    -0.0079361171180253
  63    6.5255596692917e-16
  64       2.5913878561449
  65     -0.52385232998999
  66      0.23848330375497
  67    4.3391699975234e-15
  68    -0.084833329067156
  69     -0.35254639047276
  70    2.5709580882215e-15
  71     0.093402724493495
  72      0.49454456418441
  73      -6.6293662000211
  74    2.6873662062709e-15
  75    -0.026479965979835
  76    -0.0058982716394066
  77    1.0719202050321e-15
  78      -1.9970366040558
  79       1.2734628811419
  80     -0.43391666243216
  81    9.8317625352818e-15
  82    -0.0092862029052829
  83      0.34268527948465
  84    4.5205577975161e-15
  85     -0.04094486403717
  86     0.055094000804303
  87       2.6573429671555
  88    -3.0203002166304e-15
  89      0.16083548159049
  90     -0.26565800972816
  91    -1.8011375422796e-15
  92       1.2909434476406
  93     -0.35338371322343
  94     -0.10524311363932
  95    7.8507933640363e-15
  96     0.045147911781323
  97     -0.44615208743268
  98    -2.8256749169426e-15
  99    -0.0038022755570942
 100     0.077086163307045
 101     -0.62333105100884
 102    4.5290188673125e-16
 103     0.099338590512426
 104    0.0056845508555515
 105    9.4088490792514e-16
 106    -0.026866036873427
 107      0.31768201279824
 108     -0.11242404411588
 109    -2.4004958137531e-15
 110     0.059508423917662
 111    -0.099864073399334
 112    3.9001462592483e-15
 113    0.0028711199986897
 114     -0.14347712812235
 115     -0.76141820487794
 116    2.206115475738e-15
 117      0.11424336323171
 118     0.050661507686231
 119    6.1429612986784e-16
 120      0.11758682590666
 121      0.17031882668223
 122     0.098483531914604
 123    -6.7343196968955e-15
 124    -0.054437801252606
 125      0.10801181902354
 126    -2.6662942940854e-15
 127     0.031860877848593
 128     -0.05576801070282
 129      -2.6618266348021
 130    3.1041559951835e-15
 131       0.1604613140727
 132      0.23366212085268
 133    -2.63223607975e-17
 134       1.4301054401951
 135          1.8729835664
 136     0.097968863681006
 137    -1.7657588912785e-14
 138     0.083787602066993
 139      0.30670904914142
 140    -4.1323124774058e-15
 141     0.096498467207727
 142     -0.63690181638693
 143     -0.20791903056497
 144       1.4006193314539
 145     0.015792949920424
 146     -0.66230837781658
 147     -0.03435408364466
 148      0.55887046794114
 149     -0.26908931694505
 150      0.26484060405303
 151      0.04857511899279
 152    -0.052585931126179
 153     0.013443900665343
 154    -0.0031375471722866
 155      0.12265911470834
 156     -0.42819312718303
 Sym= A
 Ene=     3.220571806
 Spin= Alpha
 Occup=    0.00000
   1    -1.1017232066453e-15
   2    -7.3533208055971e-15
   3    7.4324510470817e-14
   4      0.18601480395358
   5    -1.4223278850731e-15
   6    -1.6448392799206e-17
   7     0.013502874165863
   8    -2.0697243917711e-14
   9    -2.6793916289161e-14
  10    9.6954264145756e-15
  11      0.82403603516083
  12    -1.3612290083203e-15
  13    -5.3610028848447e-16
  14     -0.28238740406999
  15    1.5312880085547e-15
  16    2.2323347475796e-15
  17    -8.5824878393973e-14
  18     0.068801359949525
  19    5.1960315009727e-15
  20    1.3955021894354e-15
  21     0.053418266273193
  22    3.9971775206807e-14
  23    1.6618540244836e-14
  24    5.3152156454286e-16
  25      0.41420676340122
  26    -5.1547334637922e-15
  27    9.1882321924471e-15
  28     -0.18433086605433
  29    -5.6946055533096e-16
  30    -8.1745264464238e-15
  31    5.3070555413237e-14
  32    0.0078550321107889
  33    6.6144211919213e-15
  34    7.1115973482718e-16
  35    -0.011504210378992
  36    8.2851469276391e-15
  37    5.3973753988892e-14
  38    1.9186204521739e-14
  39     0.081786306681713
  40     3.79079604754e-15
  41    7.1497840066118e-15
  42      0.18403668487448
  43    8.1197378563876e-16
  44    8.0801488050032e-15
  45    -5.8265476498561e-14
  46    0.0022791551760896
  47    1.0093359448581e-14
  48    -4.9057586411189e-15
  49    0.0072002070603779
  50    8.2013016983235e-15
  51    -5.0279252695394e-14
  52    -1.7387891949052e-14
  53    -0.069471442245587
  54    7.5838420806941e-15
  55    -4.9142974476935e-15
  56      0.15565464082771
  57    -1.5319906778795e-15
  58    -1.2492508356186e-15
  59    7.4142639131506e-14
  60    -0.037612854731492
  61    4.959950396458e-15
  62    -4.6453267010214e-15
  63    -0.0071631997611809
  64    3.3784459834039e-14
  65    -2.1654770161722e-14
  66    6.2488948586808e-15
  67     -0.25393853687866
  68    -9.2047935657524e-15
  69    -5.6627357763353e-15
  70    -0.082195239581995
  71    1.2137539613937e-15
  72    8.0198087409306e-15
  73    -8.9888280896839e-14
  74    -0.086586988773232
  75    1.0337776907265e-15
  76    -4.4063307323017e-15
  77    -0.061662498457878
  78    -2.5022494414205e-14
  79    3.9165790728527e-15
  80    -7.9892600002013e-15
  81     -0.43036547997891
  82    -1.113814793016e-15
  83    3.6208610934595e-15
  84     -0.22573794519556
  85    -7.0416760948351e-16
  86    3.4352787096894e-15
  87    3.6852169197327e-14
  88      0.13509738552808
  89    2.5144401224344e-15
  90    -4.6144611917635e-15
  91     0.090693403916234
  92    7.6950240629778e-15
  93    -1.8248639941207e-14
  94    2.0194608600036e-15
  95     -0.30932767377618
  96    -1.0944103927368e-15
  97    -6.4780177653257e-15
  98      0.15576354488599
  99    4.7969915857653e-16
 100    -2.2296822596885e-16
 101    -1.6217323325712e-14
 102     -0.02947932303927
 103    -1.2781577936937e-15
 104    3.0850154293676e-15
 105     -0.04992247300176
 106    -9.4829670151643e-15
 107    1.2958398297759e-14
 108    -2.8992148926578e-15
 109      0.14593575035494
 110    2.5501298241719e-15
 111    2.7323915075419e-15
 112      -0.1588811328757
 113    5.6284538434505e-16
 114    -1.7963783833926e-15
 115    -1.9553399036446e-14
 116     -0.10894888235077
 117    1.7445324668552e-15
 118    4.0322891718905e-15
 119    -0.034285607048742
 120    6.9258006957263e-15
 121    1.2219535111561e-14
 122    -3.7769102788816e-15
 123      0.32857881314413
 124    -7.7654041171989e-15
 125    2.4696984114956e-15
 126      0.14468016833565
 127    -8.4523781438041e-16
 128    -4.3542005288756e-15
 129    3.6409689267721e-14
 130     -0.14184685741754
 131    4.5930928785283e-15
 132    1.2144057555777e-14
 133    0.0066230073535215
 134    7.8593022441669e-15
 135    2.2769616107022e-14
 136    9.1919248983018e-15
 137      0.85863521532173
 138    -4.2943881993356e-16
 139    -1.0402033971447e-16
 140      0.21274751876432
 141    3.5438392249978e-15
 142    -1.0147491225952e-14
 143    -4.470186191336e-15
 144    2.3203863637434e-14
 145    4.7001467910306e-16
 146    -9.9823884085203e-15
 147    -7.4336520744027e-16
 148    6.6553479227518e-15
 149    -4.8357111766006e-15
 150    2.7855403860003e-15
 151    6.0288064943724e-16
 152    -4.6019096853534e-15
 153    3.0897848005017e-15
 154    -4.9033415548656e-15
 155    2.2750732304423e-15
 156    -8.6448623481602e-15
 Sym= A
 Ene=      3.31934373
 Spin= Alpha
 Occup=    0.00000
   1    -0.061898881040231
   2      -0.2208864914943
   3       2.3090540250667
   4    1.8800169914048e-16
   5      0.19578777691216
   6      -0.3560849391284
   7    1.5114576745267e-16
   8      0.33664037474204
   9      -1.5786556120124
  10      0.45801970863699
  11    1.7518334027191e-15
  12     -0.11714843248965
  13    -0.097391275004385
  14    -5.7599725893035e-16
  15     0.044387045183365
  16       0.1684382174798
  17      -2.3033805805504
  18    -2.0232334111352e-16
  19     0.060147580062547
  20     -0.19452578915112
  21    4.1216214211627e-16
  22       1.2603068569219
  23      -1.2170820063832
  24     -0.33679879776174
  25    1.3337721943873e-15
  26      0.57889182484622
  27     0.080845362448539
  28    -4.1046354892434e-16
  29    -0.032519613549983
  30     -0.15926158121556
  31       1.7720510839532
  32    1.0655511215174e-15
  33     -0.19381496939886
  34    -0.057144214130118
  35    -9.4625545969433e-16
  36      -1.3933627782227
  37      0.49487995572534
  38     -0.42891804231012
  39    -1.1728540946172e-15
  40      0.12872898376913
  41     -0.42526556281727
  42    1.3890287968949e-15
  43     0.037490155456776
  44    0.0076602084833884
  45      -1.9018473789212
  46    4.1719473526869e-16
  47      -0.2840768362843
  48     0.024678551908792
  49    2.6157336172089e-16
  50      -1.0502579731799
  51     -0.46328950661627
  52      0.23116820615807
  53    1.1062927664012e-15
  54      0.11779299497026
  55      0.32895728712214
  56    -2.9688336496298e-16
  57    -0.0026175938194134
  58     -0.21407875511897
  59        1.037689579742
  60    -2.7338777814877e-16
  61    -0.072912672425823
  62     -0.16489404115915
  63    -1.6567859791987e-16
  64      0.67696526624727
  65      0.30085714436763
  66    -0.040074696469213
  67    2.7452904181635e-16
  68     0.021968778208133
  69    -0.026491137299708
  70    -3.6467485205679e-16
  71    0.0037928586554364
  72      0.22989353002279
  73     -0.34619277039245
  74    -6.7965647779137e-17
  75      0.17809816776122
  76      0.03377133589318
  77    1.5309283207825e-16
  78     -0.21318937538092
  79      0.93116001507682
  80      0.01811816452929
  81    -7.2566520628277e-17
  82      0.49699884607604
  83    -0.009713744106865
  84    -2.7336136752993e-16
  85    -0.031517401924261
  86      0.11421403814738
  87      0.29491968940222
  88    2.1391255460879e-16
  89      0.10066593399315
  90      0.19213763001772
  91    2.5882685867101e-17
  92     0.077896416316823
  93       1.1791174574004
  94    -0.037346818530347
  95    4.2914152642097e-16
  96      0.71644869607635
  97     -0.26321159418323
  98    4.5359371969676e-16
  99     0.022220299824495
 100     -0.11869901744407
 101     -0.79667806759437
 102    -1.7237514450977e-16
 103      0.18989592262508
 104      0.29209957294752
 105    -1.3192786396555e-16
 106      0.71003197727294
 107      0.62032685014867
 108     -0.44609603460231
 109    7.7407237482002e-16
 110     -0.16757073935915
 111    -0.086228197444481
 112    1.2115786141161e-16
 113     0.033566616858819
 114     -0.15479082502255
 115     -0.74394893413072
 116    -3.1382580863638e-16
 117       0.2555022168563
 118      0.15691395362949
 119    -2.3681798831408e-16
 120      0.39471508075785
 121     0.039387500457149
 122    -0.065485831752018
 123    8.0132375083483e-16
 124     -0.32824018666748
 125      0.26244602027074
 126    5.8084455598874e-16
 127    -0.019826685714668
 128     0.037506603915885
 129       1.1836495541477
 130    -3.7207382296619e-16
 131      0.15442762742103
 132       0.3784672408409
 133    2.1363379283895e-16
 134     -0.23200723809964
 135     -0.12645695888988
 136      0.33605886031306
 137    2.1731960192167e-15
 138      0.16824121282601
 139     0.051758803382109
 140    6.2697765884095e-16
 141    -0.077044854738431
 142     -0.23232172386612
 143       0.2349300746448
 144     0.030381751776195
 145    -0.096766747904768
 146     -0.15948872500705
 147     0.001805991425769
 148      0.13836599420554
 149     -0.15243916696831
 150    -0.083845182584974
 151     0.088129611117516
 152    -0.064470133722567
 153      0.16402761056469
 154     -0.11797755692067
 155    -0.049335204180564
 156       0.1232730900356
 Sym= A
 Ene=     3.419832092
 Spin= Alpha
 Occup=    0.00000
   1    0.0026393908039199
   2     0.015731049002091
   3        0.961731725404
   4    -4.2239561909955e-17
   5      0.13686325513823
   6     0.032254871288156
   7    2.7065253502298e-16
   8    -0.064185605711769
   9       1.6224105311056
  10      0.33056688156789
  11    1.0288278340628e-15
  12      0.26186100117108
  13      0.24032326244286
  14    -1.5566310186648e-16
  15    -0.030058162519093
  16    -0.021835356096901
  17       1.8585587744999
  18    -8.6359228162034e-17
  19    -0.067677997531765
  20    -0.045981941208466
  21    -4.0713319167503e-16
  22     -0.78458847599074
  23     -0.51111538535666
  24      0.32651150251099
  25    1.5627607448614e-15
  26      0.28179848179093
  27     0.029885357717469
  28    1.2910539579441e-16
  29    0.00038244617541254
  30    -0.049591159399178
  31    -0.060248843706509
  32    3.309252897667e-16
  33     -0.23875256391632
  34     -0.16384047949913
  35    1.4450340066417e-16
  36     -0.64091712928819
  37     -0.97753232933727
  38     -0.20975888738191
  39    9.2217540743338e-16
  40     -0.28607000154523
  41     -0.12917507102944
  42    1.2090789938333e-16
  43     0.011579619122724
  44    0.0039150297538035
  45     -0.46602035154962
  46    -1.9707510446562e-16
  47    -0.059844974073588
  48    -0.0071400708307538
  49    -5.3226334711328e-17
  50     -0.74165745268264
  51      0.29168595659814
  52      0.26680839501853
  53    4.5161493576763e-16
  54    -0.012905673915407
  55      0.21905449366866
  56    -1.2211241524897e-15
  57    -0.028962834219209
  58    -0.0012473859495065
  59      0.94323052945503
  60    -1.2054206801088e-16
  61      0.06246583086212
  62      0.28866646448726
  63    -8.0403792603762e-18
  64      0.57910642574285
  65      0.84935215783659
  66      0.35288263128464
  67    7.2425105698075e-16
  68      0.35582384733892
  69     0.032041857965843
  70    -5.31120934184e-17
  71     0.022115238739997
  72      0.36294080162648
  73     -0.89110225956126
  74    3.5937833118527e-17
  75      0.15825274904068
  76      0.54729183305668
  77    -1.1201947235906e-16
  78      0.60787824611872
  79      0.88977645512351
  80     -0.10006453980425
  81    3.3795435303459e-16
  82     -0.59281609581727
  83    -0.013000775874486
  84    6.8823147794211e-17
  85     0.034493056778665
  86     -0.15540589664426
  87      -1.1328950632144
  88    -8.9150193646482e-17
  89     0.019638878696407
  90    -0.017767668921389
  91    1.6991729358763e-16
  92     -0.15928862803403
  93      -0.3979783647279
  94     -0.66912121938528
  95    9.9684623831173e-17
  96     -0.54486172718377
  97     -0.07567327910449
  98    5.1399708864165e-16
  99    -0.053167556516848
 100      0.16662058493793
 101       1.4713217813827
 102    -1.8155635704257e-16
 103     -0.19601640534812
 104     -0.44184410877547
 105    -4.0079282213454e-17
 106     0.026555771625267
 107     -0.75628141634812
 108      0.40224407886482
 109    9.9947801631237e-17
 110      0.18503151706469
 111     -0.14043413154557
 112    -2.1598944672201e-16
 113     0.029142931242186
 114     -0.14064281763843
 115      -1.7023396970163
 116    -1.2693870954696e-16
 117      0.14461191827793
 118      0.27314848926323
 119    3.3443693004601e-17
 120      0.56363350986585
 121      0.89664096803488
 122     -0.36255427652428
 123    3.1173419502276e-16
 124     -0.31940051771848
 125      0.05969942073915
 126    -1.4431776348898e-17
 127    -0.0011904642519947
 128     -0.13768391470326
 129     -0.95676396921801
 130    -4.080772306544e-16
 131      0.28212275018407
 132      0.36246598782315
 133    -1.2284962236866e-16
 134       1.0384437382356
 135       1.4846698351421
 136      0.15570104639642
 137    8.9164041555572e-16
 138      0.66502644025561
 139     0.045405874905849
 140    6.5788003928012e-16
 141      0.10387023476484
 142      0.12760615085812
 143     -0.10547637097128
 144      -0.5919977971192
 145    -0.044764955627964
 146     0.033396002940324
 147      0.12995929083284
 148     0.085105591690814
 149     -0.11650694450118
 150      0.17572299359704
 151    -0.060301113754752
 152      0.16469047429801
 153      0.15339023733803
 154     -0.30578890204802
 155     0.081724345951459
 156      0.21512855920361
 Sym= A
 Ene=     3.555500389
 Spin= Alpha
 Occup=    0.00000
   1    -0.053124296476859
   2      0.23084584251465
   3       3.3690632530858
   4    1.2056474270961e-18
   5    -0.029931044554218
   6      0.43203485086185
   7    -1.2396600588705e-16
   8      -1.3582096977694
   9     -0.64636548267666
  10      0.12603727295955
  11    1.730588097128e-17
  12      0.19436894586008
  13     -0.32587436659323
  14    -4.4015689524246e-16
  15     0.044942714359805
  16      0.17761078648481
  17      -2.6392162850798
  18    -6.7421642625729e-17
  19     0.057906805351079
  20      0.20025858188027
  21    2.2677795499809e-16
  22       1.4448159874312
  23        0.530583201743
  24     -0.32317438952237
  25    5.7120743420732e-16
  26     -0.15019700366844
  27     0.040655661877781
  28    3.3682175255223e-18
  29    -0.044663808246196
  30     -0.15080791643875
  31       2.3886748727065
  32    6.8384267461247e-16
  33     0.016806429482855
  34     0.083612712226795
  35    -1.1109553461187e-15
  36     -0.32073219485739
  37       1.8528390398693
  38     0.079269132884487
  39    -7.4825347301503e-16
  40      0.48303100145972
  41     -0.17690426338885
  42    2.2430284221918e-15
  43     0.042598660679836
  44     0.023494020673939
  45      -2.6923750436593
  46    2.2750231082906e-16
  47     0.056677402355107
  48     -0.17300774427111
  49    8.2068703958584e-16
  50     -0.15311390134426
  51      -1.6554451496185
  52    -0.046008493234536
  53    2.0919280443977e-16
  54      0.51990406389487
  55      0.16228980269554
  56    1.9355075365579e-15
  57    -0.032683392435604
  58     -0.16564563889623
  59       2.9078648509483
  60    -3.3804642946876e-16
  61    0.0043810111344597
  62     -0.21642100257704
  63    -2.1567969118425e-16
  64       1.7506614916882
  65     -0.83133489748597
  66      0.42346443375563
  67    -1.1125808068764e-15
  68     -0.34052051893398
  69      0.10892984714163
  70    -5.3438992588166e-16
  71    0.0067247294986957
  72      0.17234337463807
  73    -0.080744139227294
  74    -5.8081337974996e-17
  75    -0.073514714885856
  76      0.13991953089304
  77    3.8729368714503e-17
  78       -1.522825480761
  79       2.7272101143999
  80      0.66104045763359
  81    -1.2599440339546e-15
  82    -0.034382514532369
  83      0.32425243617745
  84    -6.5771988157971e-16
  85     0.015128112921662
  86     -0.34767241227611
  87      -1.6043538652406
  88    2.0115442252957e-16
  89     -0.10035091723334
  90      0.43402145860989
  91    -3.1328089173838e-17
  92      0.89332290551753
  93       1.7990856116307
  94    -0.061541330688818
  95    -9.8080039956338e-16
  96     0.050742106207204
  97      0.18888978427274
  98    -1.402762202315e-16
  99    -0.026851782224693
 100     0.079738364312506
 101     -0.13008733791082
 102    7.5415886921327e-17
 103     0.086608875960194
 104     -0.26020678644667
 105    3.7207925348599e-17
 106      0.60640302031658
 107      -0.2216921436979
 108      0.37080359311849
 109    -2.9382108675109e-16
 110     -0.51923889585471
 111    -0.0084425748178754
 112    -4.0990520591399e-16
 113    -0.0065355841414717
 114    -0.035763343266309
 115    -0.068673219303178
 116    3.8323408893448e-17
 117     -0.13314846706846
 118     0.093643325420827
 119    1.2064699408739e-16
 120     -0.11924946766056
 121     -0.14760730524301
 122     -0.26476995381428
 123    -9.2910213189616e-17
 124    -0.010540397005804
 125      -0.1839547881387
 126    -2.5721444316789e-16
 127     0.048442623697723
 128    -0.063858095685781
 129      -2.1267611431176
 130    2.7251928496683e-16
 131     0.080956380995806
 132     0.035704580914623
 133    -1.2837540899989e-16
 134      0.83744378610526
 135     0.052612335746317
 136     -0.78226526515443
 137    -3.222919913134e-16
 138      0.58250976440337
 139    -0.057518865040016
 140    -2.2481893441879e-16
 141    -0.090281207747969
 142     -0.26501636936077
 143      0.24863715708017
 144        0.568351678847
 145     -0.20242312936011
 146     -0.25357915688275
 147      0.21711811243939
 148      0.32649292542464
 149      0.13100582809383
 150     0.053482166738209
 151     -0.20148444132683
 152      0.26806774727702
 153      0.08218192263081
 154     0.040047548287741
 155    -0.090166281940502
 156    -0.054856193158786
 Sym= A
 Ene=     3.679384988
 Spin= Alpha
 Occup=    0.00000
   1     0.026933258797981
   2     -0.34010435402678
   3      -1.9826091066998
   4    -1.2874688344508e-16
   5     0.061068480345631
   6     -0.42566620399295
   7    3.5044033386901e-19
   8     0.058127865137028
   9      -2.6109930574433
  10     -0.66717927856912
  11    -8.3454157149903e-16
  12     -0.11425825530496
  13    -0.050547827409907
  14    -2.0050064583676e-17
  15     0.014031710536467
  16     0.094243939375486
  17      -1.9348705879458
  18    1.205596613474e-16
  19     -0.01964829769322
  20      0.14199726353362
  21    1.6652879972991e-16
  22      0.97978826638718
  23      0.14426576731216
  24     -0.33266275976051
  25    -4.0590399690387e-16
  26     -0.22992687955158
  27      -0.1474447892777
  28    9.8851147625005e-17
  29    -0.029224376188194
  30     0.043410020837633
  31        1.814817867075
  32    4.5688448508062e-17
  33    -0.044282557659824
  34      0.13109267176708
  35    -5.0392459952202e-16
  36     -0.42175234042189
  37      0.75847833162498
  38    -0.099764475208578
  39    -7.9465469681613e-16
  40      0.37919025699476
  41     -0.18057065045007
  42    1.2297614613605e-15
  43       0.0306283833339
  44      0.15865646818591
  45      -1.3464032824984
  46    4.2856817994754e-16
  47    -0.052477294374202
  48     0.047818282468727
  49    4.305318303174e-16
  50     -0.80583769567548
  51     -0.82807036010181
  52      0.11187297286996
  53    4.3429623485482e-16
  54      0.21542723421041
  55       0.2232329834983
  56    6.7028591779365e-16
  57     -0.05703731286581
  58    0.0066357760170658
  59       2.1448006739185
  60    -1.3494103601082e-16
  61       0.1661192905962
  62      0.20611144562939
  63    -1.5834023562362e-16
  64      0.93072224219013
  65      0.81202439519182
  66      0.38664341911709
  67    4.2806560044699e-16
  68      0.38861044814184
  69     -0.10030397212688
  70    -1.203628307776e-16
  71     0.077310177175513
  72     -0.42116904194568
  73      -3.5000612379126
  74    1.3608765619948e-16
  75      0.05148767562866
  76       -0.446158079299
  77    4.4917359402665e-17
  78      0.44088643042566
  79      0.35258458902512
  80     -0.90327106681101
  81    -1.0097427953781e-16
  82     -0.45291355515934
  83      0.15495035856327
  84    1.8988147348048e-16
  85    -0.032304154390905
  86      0.47561895770899
  87       0.7122521939501
  88    -3.0900344790195e-17
  89       0.1289420983927
  90     -0.53296555956733
  91    -6.5531224064051e-17
  92     -0.42361594804321
  93      -1.2551263420447
  94      0.84184304174746
  95    -5.4595026042965e-17
  96     -0.10775275839144
  97     0.043012681007856
  98    -2.632080268842e-16
  99     0.031791897447288
 100    -0.091614651031909
 101      0.19204050688066
 102    1.3547746251143e-16
 103    -0.00033938610618984
 104      0.13656852010692
 105    1.1829742230594e-16
 106     -0.56702210107381
 107      0.01728690042953
 108      0.15434366159418
 109    -3.837990237696e-16
 110     -0.19410875347497
 111      0.30662178012537
 112    1.6092147176267e-16
 113     0.011846684205209
 114    -0.044854613705655
 115      0.35594812753303
 116    1.1592650059122e-16
 117    -0.022883372878944
 118      0.23309977502111
 119    8.3651368877843e-18
 120    -0.089625473477036
 121      0.22641574136282
 122     -0.24065517262586
 123    -2.5267074153623e-16
 124     -0.38149826304017
 125    -0.0064654528351711
 126    -1.6697092973473e-16
 127     -0.05632757706193
 128       0.3723578223644
 129       3.8754769706407
 130    -1.9115742892063e-16
 131      0.13039467435936
 132     -0.29589693159121
 133    -3.0433944283698e-17
 134      -0.3052806228785
 135      -1.5550893559423
 136      0.69385698960499
 137    -8.6493375157722e-16
 138      0.18252627205922
 139     -0.14071860124841
 140    7.270781168608e-17
 141     -0.16494321331925
 142     -0.14040331743607
 143      0.20784575665074
 144     0.053621184278829
 145      -0.1508611364829
 146     -0.24389304917668
 147     0.038280730243562
 148      0.15363487979471
 149      0.10211174636223
 150     -0.15353139866892
 151     -0.12057578002472
 152    -0.055901184078873
 153      0.12925145398913
 154     -0.14980978000591
 155    -0.080375945220978
 156     0.076894946808832
 Sym= A
 Ene=     3.963309161
 Spin= Alpha
 Occup=    0.00000
   1    -0.063944386306103
   2      0.39257905299819
   3       5.3394459071654
   4    3.7483766470834e-16
   5      0.08454143241035
   6      0.54192012239073
   7    -4.1152980219917e-16
   8      0.62322639570585
   9       1.3378856895474
  10       1.1066083950872
  11    5.6091692740524e-16
  12     -0.76792656427507
  13     0.014001139165282
  14    -7.2689753982745e-17
  15      0.05445732235687
  16    -0.084453408849225
  17        -1.22566096161
  18    -1.3524464859964e-16
  19      0.18518321815042
  20     -0.33382373444092
  21    2.5329085539577e-16
  22      0.45962768623497
  23     -0.98997035148341
  24     -0.35487545614764
  25    4.9675216831155e-16
  26      0.45235567674265
  27     0.086685879123852
  28    -2.9617316292955e-17
  29    -0.020330367237307
  30     -0.12154626329913
  31      0.84493778364506
  32    4.7157157232768e-16
  33    -0.063210627757119
  34    -0.058744626160833
  35    -3.7437976774612e-16
  36     -0.86512970673229
  37      0.35062839433226
  38      -0.1254427141089
  39    -3.4738531097686e-16
  40      0.05134893521378
  41     -0.17472982484962
  42    1.5944883380948e-16
  43     0.017822625301603
  44     0.057953787093444
  45     -0.98392255019051
  46    1.2990838229223e-16
  47    -0.084389627543033
  48     0.026006840766244
  49    1.2233897269393e-16
  50     -0.71422413306891
  51     -0.28965125181844
  52      0.11366811541886
  53    3.0200026098109e-16
  54     0.065994941580913
  55      0.14674225799169
  56    -1.8161683566102e-16
  57    -0.033629890982751
  58      0.02694273037662
  59      0.81871271014011
  60    -8.901762089523e-17
  61     0.098811520025382
  62      0.18093348706931
  63    -8.0532079072754e-17
  64      0.42107677311443
  65      0.54981336714602
  66      0.24439540870704
  67    3.451966081424e-16
  68      0.25633666022422
  69    -0.028600457435472
  70    -5.3258319773485e-17
  71     0.023133784595909
  72     -0.17377393193746
  73      -3.1031532161964
  74    4.363534194452e-18
  75      0.10620113386071
  76     -0.24718990927407
  77    1.7442128289252e-16
  78      0.21008821012084
  79     -0.73540460113493
  80     -0.57799325275554
  81     8.28784034794e-17
  82     -0.52503089946415
  83     -0.10335795968691
  84    2.3198180167823e-16
  85    -0.0046364943032934
  86      0.14378167323164
  87       2.3152641627987
  88    7.5206555048205e-18
  89     0.038652157680859
  90     -0.40454420127406
  91    -1.1010884349952e-16
  92       0.4580301343864
  93      -1.4693148124507
  94      0.40256572489569
  95    1.1703238316248e-16
  96     -0.33732596667948
  97      0.12675868186701
  98    -8.3173006405186e-17
  99    0.0044603103372634
 100     0.028715901479988
 101     -0.86494009071892
 102    -6.5931631463387e-17
 103    -0.0049111808370697
 104    -0.010772319048524
 105    -2.9759108975944e-17
 106       -0.749323795136
 107      0.41777027858803
 108    0.0078015535640861
 109    2.7347142773947e-16
 110    -0.016738561321301
 111     0.016254556724315
 112    -4.501344341282e-17
 113    -0.046161378516415
 114       0.2326479045217
 115      0.85817656543887
 116    -1.6165861464077e-16
 117     -0.28984919327109
 118     -0.40318417247397
 119    -9.5506204164433e-17
 120     -0.41530284381137
 121     -0.43826211364577
 122      0.28670856583441
 123    3.4196611277703e-16
 124      0.44608520085136
 125     -0.19499057711685
 126    2.9400217821505e-16
 127     0.055663768145958
 128     -0.57865322296337
 129       -4.224267578039
 130    1.8471199870497e-16
 131     -0.10449856977887
 132      0.41425617385227
 133    1.4596953289054e-16
 134     -0.26525872673015
 135       2.4343332087954
 136      -1.0603737881944
 137    1.0258849058268e-15
 138     -0.75620289647246
 139     0.035002935857212
 140    -1.059817819171e-16
 141    -0.024181807104182
 142    -0.046187659216828
 143     0.071173809542299
 144      0.18626526034822
 145    -0.060582364549322
 146     -0.12097695270367
 147     0.044326627159034
 148     0.061123380067912
 149     0.098966319350768
 150      0.14266503707056
 151    -0.045961093242608
 152     -0.15521717494297
 153     -0.16776521059392
 154      0.23707620928459
 155    0.0092495533325447
 156    -0.011507714425634
 Sym= A
 Ene=     4.033775996
 Spin= Alpha
 Occup=    0.00000
   1     0.025673563463615
   2      0.23963290222205
   3      0.17774177231827
   4    -1.7413274678477e-16
   5      0.23114021319265
   6      0.40966602338463
   7    -1.4310316558947e-16
   8      0.72347219348578
   9       2.0051389463835
  10      0.51980528034367
  11    -1.0710825348137e-16
  12      0.57550185914692
  13      0.28530687098547
  14    2.1718007013414e-16
  15    -0.027231565811326
  16    -0.014463677121758
  17       1.9672966930865
  18    1.5170111144747e-16
  19    -0.032144527766172
  20     0.020279064831064
  21    -1.5121790260005e-16
  22      -1.1415630682788
  23     -0.34653822303926
  24      0.40647206378219
  25    9.5495215732243e-17
  26     0.094915988854777
  27      0.11583352717345
  28    -2.879110554356e-16
  29     0.026566166495536
  30     0.033452262593054
  31      -1.5902392264547
  32    -2.036006547701e-16
  33    -0.024064636162418
  34    -0.076690379296321
  35    3.5237143385716e-16
  36      0.21758923184556
  37      -1.0635432349398
  38     0.045948800630935
  39    4.4502005489845e-16
  40     -0.32294717797969
  41      0.14016905893806
  42    -7.4715462954954e-16
  43    -0.027721241791449
  44    -0.021494975338012
  45        1.588726130542
  46    -1.8048628575567e-16
  47    -0.022792263751353
  48     0.074414473069378
  49    -2.8410677806647e-16
  50      0.18388929125251
  51      0.95475350808585
  52    -0.024040533690398
  53    -2.5119594454355e-16
  54     -0.29944700078627
  55     -0.13292823259302
  56    -5.4701765998182e-16
  57     0.016385111739341
  58     0.039458809220883
  59      -1.8803017783295
  60    1.4290661283388e-16
  61     0.003675807808029
  62     0.041850027375366
  63    8.6612929316995e-17
  64      -0.9595423709577
  65      0.35275691840223
  66     -0.34211142101039
  67    2.2962949694987e-16
  68      0.18873970629934
  69     -0.14466294094599
  70    2.7038647454034e-16
  71    -0.013233124046466
  72     -0.36543544585017
  73     -0.38904239911072
  74    3.5552684387912e-17
  75      0.23189022972431
  76     -0.50294286325748
  77    7.7484276539791e-17
  78      0.48233491296096
  79       -2.044663584737
  80     -0.71155431571197
  81    3.5872721882441e-16
  82       0.3804561568038
  83     -0.25528021462632
  84    2.3932847976027e-16
  85     -0.02163988034422
  86      0.31574970995127
  87       2.4349606637625
  88    -9.2711970650604e-17
  89      -0.1593008657659
  90     -0.30837611079259
  91    -1.4392307426544e-16
  92    -0.043055076094841
  93     -0.89954689012792
  94      0.94196170899869
  95    3.0257016311589e-16
  96      0.44039833757823
  97      0.24241923832236
  98    -3.26245477581e-16
  99     0.007737499317712
 100    -0.0088499556108454
 101     -0.60844675729602
 102    -3.520202033779e-17
 103      0.24522505985692
 104    -0.033008697734484
 105    -7.6629530935693e-17
 106     -0.21626612235062
 107      0.31243158223876
 108      0.24144623126794
 109    1.3950245643285e-16
 110     -0.72022077866263
 111      0.14780787168163
 112    2.6252634066568e-18
 113    -0.0076579726259573
 114     -0.12954852639807
 115       0.5999777419914
 116    2.7116163429669e-17
 117     -0.10768242794466
 118      0.18540056213591
 119    8.6749367379628e-19
 120     -0.26484414713871
 121     -0.28279775360438
 122      -0.2862484199909
 123    -1.5326554365456e-16
 124     -0.15666431314099
 125     -0.15993450508296
 126    -7.1340219568884e-17
 127     0.010112825919197
 128     -0.18303662531176
 129      -2.1831762664059
 130    7.5457612815764e-17
 131      -0.0653516865158
 132      0.25877815948778
 133    2.3238321941948e-16
 134     -0.47390736237213
 135      0.87260758921029
 136     -0.69680844233972
 137    -1.9422076983278e-16
 138      0.75187919901704
 139     -0.22344833653449
 140    -5.4229424860026e-16
 141      0.17210947472797
 142      0.20331597201342
 143       -0.168682741311
 144     -0.28418975595664
 145      0.12097763065467
 146      0.16310448908525
 147     -0.16080726880522
 148     -0.11773825253129
 149      0.19016241090797
 150     -0.15580097482023
 151     -0.25601608431822
 152     0.030524493031076
 153      0.10705050363148
 154      0.03618109502594
 155     0.062772046962412
 156     0.017003902154558
